  Job Started  at 12:37.27  6th October    2020

  Number of CPUs =     1

  Total number of configurations input =      1

*  Input for Configuration =   1 : ZrO2                                        *

  Formula = ZrO2

  Number of irreducible atoms/shells =       4

  Total number atoms/shells =       6

  Dimensionality = 3               :  Bulk

  Symmetry :

  Crystal family                   :  Cubic
  Crystal class  (Groth - 1921)    :  Cubic Hexakisoctahedral

  Space group (centrosymmetric)    :  F M 3 M

  Patterson group                  :  F m -3 m

  Cartesian lattice vectors (Angstroms) :

        0.000000    2.535000    2.535000
        2.535000    0.000000    2.535000
        2.535000    2.535000    0.000000

  Primitive cell parameters :            Full cell parameters :

  a =   3.5850    alpha =  60.0000       a =   5.0700    alpha =  90.0000
  b =   3.5850    beta  =  60.0000       b =   5.0700    beta  =  90.0000
  c =   3.5850    gamma =  60.0000       c =   5.0700    gamma =  90.0000

  Initial volumes (Angstroms**3):

  Primitive cell =          32.580961    Full cell =         130.323843

  Temperature of configuration =   0.00     K

  Pressure of configuration =         0.000 GPa

  Fractional coordinates of asymmetric unit :

   No.  Atomic       x           y          z         Charge      Occupancy
        Label      (Frac)      (Frac)     (Frac)        (e)         (Frac)
      1 Zr    c    0.000000    0.000000    0.000000     2.65000    1.000000
      2 O     c    0.250000    0.250000    0.250000     0.07700    1.000000
      3 Zr    s    0.000000    0.000000    0.000000     1.35000    1.000000
      4 O     s    0.250000    0.250000    0.250000    -2.07700    1.000000

  Constraints :

  Constraint no.      Unconstrained     Constrained    Coefficient    Offset
                         Variable         Variable
           1              Strain 1        Strain 2       1.00000      0.0000
           2              Strain 1        Strain 3       1.00000      0.0000

  Distance calculation :

  Cutoff for distances  =      4.000000 Angstroms

  Asymmetric unit site  Full lattice sites    No.  Distance      No.  Distance
      No.   At.No.            At.No.                (Angs)             (Angs)
       1   Zr    core        Zr    core        12    3.5850
                             Zr    shell       12    3.5850
                             O     core         8    2.1954
                             O     shell        8    2.1954
       2   O     core        Zr    core         4    2.1954
                             Zr    shell        4    2.1954
                             O     core         6    2.5350       12    3.5850
                             O     shell        6    2.5350       12    3.5850
       3   Zr    shell       Zr    core        12    3.5850
                             Zr    shell       12    3.5850
                             O     core         8    2.1954
                             O     shell        8    2.1954
       4   O     shell       Zr    core         4    2.1954
                             Zr    shell        4    2.1954
                             O     core         6    2.5350       12    3.5850
                             O     shell        6    2.5350       12    3.5850

*  General input information                                                   *

  Species output for all configurations :

  Species    Type    Atomic    Atomic    Charge       Radii (Angs)     Library
                     Number     Mass       (e)     Cova   Ionic  VDW   Symbol
    Zr       Core       40      91.22   2.650000   1.560  0.000  2.330
    Zr       Shell      40       0.00   1.350000   1.560  0.000  2.330
    O        Core        8      16.00   0.077000   0.730  0.000  1.360
    O        Shell       8       0.00  -2.077000   0.730  0.000  1.360

  Lattice summation method               =    Ewald          (3-D)
                                         =    Parry          (2-D)
                                         =    Saunders et al (1-D)
  Accuracy factor for lattice sums       =   12.000

  Analytic derivatives to be used

  Time limit = Infinity

  Maximum range for interatomic potentials =    100000.000000 Angstroms

  General interatomic potentials :

Atom  Types   Potential      Parameter       Value         Units   Cutoffs(Ang)
  1     2                                                            Min /  Max
O    s Zr   s Buckingham    Buckingham A     985.86900    eV        0.000 12.000
                            Buckingham rho  0.37600000    Ang
                            Buckingham C     0.0000000    eV*Ang^6
O    s O    s Buckingham    Buckingham A     22764.300    eV        0.000 12.000
                            Buckingham rho  0.14900000    Ang
                            Buckingham C     27.890000    eV*Ang^6
Zr   c Zr   s Spring (c-s)  Spring k 2       169.61700    eV*Ang^-2 0.000  0.800
                            Spring k 4       0.0000000    eV*Ang^-4
O    c O    s Spring (c-s)  Spring k 2       27.290000    eV*Ang^-2 0.000  0.800
                            Spring k 4       0.0000000    eV*Ang^-4

*  Output for configuration   1 : ZrO2                                         *

  Components of energy :

  Interatomic potentials     =          22.43756329 eV
  Monopole - monopole (real) =         -15.67991073 eV
  Monopole - monopole (recip)=        -116.52038266 eV
  Monopole - monopole (total)=        -132.20029339 eV
  Total lattice energy :
    Primitive unit cell      =        -109.76273010 eV
    Non-primitive unit cell  =        -439.05092039 eV
  Total lattice energy (in kJmol-1):
    Primitive unit cell      =          -10590.4256 kJ/(mole unit cells)
    Non-primitive unit cell  =          -42361.7023 kJ/(mole unit cells)

  Number of variables =        1

  Maximum number of calculations  =          1000
  Maximum Hessian update interval =            10
  Maximum step size               =   1.000000000
  Maximum parameter tolerance     =   0.000010000
  Maximum function  tolerance     =   0.000010000
  Maximum gradient  tolerance     =   0.001000000
  Maximum gradient  component     =   0.010000000

  Symmetry constrained optimisation

  Symmetry used for second derivatives

  Cell parameters to be optimised using strains

  Newton-Raphson optimiser to be used

  BFGS hessian update to be used

  Lower half triangular hessian to be used

  Start of bulk optimisation :

  ** Hessian calculated **

  **** Optimisation achieved ****

  Final energy =    -109.76305939 eV
  Final Gnorm  =       0.00000099

  Components of energy :

  Interatomic potentials     =          22.28919976 eV
  Monopole - monopole (real) =         -15.66235280 eV
  Monopole - monopole (recip)=        -116.38990634 eV
  Monopole - monopole (total)=        -132.05225914 eV
  Total lattice energy :
    Primitive unit cell      =        -109.76305939 eV
    Non-primitive unit cell  =        -439.05223754 eV
  Total lattice energy (in kJmol-1):
    Primitive unit cell      =          -10590.4573 kJ/(mole unit cells)
    Non-primitive unit cell  =          -42361.8294 kJ/(mole unit cells)

  Final asymmetric unit coordinates :

   No.  Atomic        x           y           z         Radius
        Label       (Frac)      (Frac)      (Frac)       (Angs)
     1  Zr    c     0.000000    0.000000    0.000000    0.000000
     2  O     c     0.250000    0.250000    0.250000    0.000000
     3  Zr    s     0.000000    0.000000    0.000000    0.000000
     4  O     s     0.250000    0.250000    0.250000    0.000000

  Final Cartesian lattice vectors (Angstroms) :

        0.000000    2.537842    2.537842
        2.537842    0.000000    2.537842
        2.537842    2.537842    0.000000

  Final cell parameters and derivatives :

       a            3.589050 Angstrom     dE/de1(xx)    -0.000001 eV/strain
       b            3.589050 Angstrom     dE/de2(yy)     0.000000 eV/strain
       c            3.589050 Angstrom     dE/de3(zz)     0.000000 eV/strain
       alpha       60.000000 Degrees      dE/de4(yz)     0.000000 eV/strain
       beta        60.000000 Degrees      dE/de5(xz)     0.000000 eV/strain
       gamma       60.000000 Degrees      dE/de6(xy)     0.000000 eV/strain

  Primitive cell volume =            32.690656 Angs**3

  Density of cell =      6.259124 g/cm**3

  Non-primitive lattice parameters :

  a    =     5.075684  b   =     5.075684  c    =     5.075684
  alpha=    90.000000  beta=    90.000000  gamma=    90.000000

  Non-primitive cell volume =           130.762624 Angs**3

  Final internal derivatives :

   No.  Atomic          a             b             c           Radius
        Label          (eV)          (eV)          (eV)        (eV/Angs)
      1 Zr    c       0.000000      0.000000      0.000000      0.000000
      2 O     c       0.000000      0.000000      0.000000      0.000000
      3 Zr    s       0.000000      0.000000      0.000000      0.000000
      4 O     s       0.000000      0.000000      0.000000      0.000000
  Maximum abs         0.000000      0.000000      0.000000      0.000000

  Comparison of initial and final structures :

  Parameter   Initial value   Final value   Difference    Units      Percent
    Volume       130.323843    130.762624     0.438781    Angs**3      0.34
    a              5.070000      5.075684     0.005684    Angstroms    0.11
    b              5.070000      5.075684     0.005684    Angstroms    0.11
    c              5.070000      5.075684     0.005684    Angstroms    0.11
    alpha         90.000000     90.000000     0.000000    Degrees      0.00
    beta          90.000000     90.000000     0.000000    Degrees      0.00
    gamma         90.000000     90.000000     0.000000    Degrees      0.00
      1 x          0.000000      0.000000     0.000000    Fractional   0.00
      1 y          0.000000      0.000000     0.000000    Fractional   0.00
      1 z          0.000000      0.000000     0.000000    Fractional   0.00
      2 x          0.250000      0.250000     0.000000    Fractional   0.00
      2 y          0.250000      0.250000     0.000000    Fractional   0.00
      2 z          0.250000      0.250000     0.000000    Fractional   0.00
      3 x          0.000000      0.000000     0.000000    Fractional   0.00
      3 y          0.000000      0.000000     0.000000    Fractional   0.00
      3 z          0.000000      0.000000     0.000000    Fractional   0.00
      4 x          0.250000      0.250000     0.000000    Fractional   0.00
      4 y          0.250000      0.250000     0.000000    Fractional   0.00
      4 z          0.250000      0.250000     0.000000    Fractional   0.00

  Distance calculation :

  Cutoff for distances  =      4.000000 Angstroms

  Asymmetric unit site  Full lattice sites    No.  Distance      No.  Distance
      No.   At.No.            At.No.                (Angs)             (Angs)
       1   Zr    core        Zr    core        12    3.5891
                             Zr    shell       12    3.5891
                             O     core         8    2.1978
                             O     shell        8    2.1978
[...]
    17  Zr    c      -0.000148     -0.000122      0.000000      0.000000
    18  O     c      -0.000008      0.000000     -0.000003      0.000000
    19  O     c       0.000009      0.000005      0.000006      0.000000
    20  O     c      -0.000004     -0.000000      0.000000      0.000000
    21  Zr    c      -0.000156      0.000000     -0.000124      0.000000
    22  Zr    c       0.000027      0.000000     -0.000164      0.000000
    23  O     c       0.000003      0.000000      0.000000      0.000000
    24  O     c      -0.000006     -0.000004      0.000001      0.000000
    25  Zr    c      -0.000200      0.000000      0.000018      0.000000
    26  O     c      -0.000005      0.000004     -0.000006      0.000000
    27  O     c       0.000001      0.000000     -0.000004      0.000000
    28  Zr    c       0.000081     -0.000213     -0.000063      0.000000
    29  O     s       0.000000      0.000000      0.000000      0.000000
    30  O     s       0.000976      0.000000      0.000000      0.000000
    31  Zr    s       0.000000      0.000000      0.007192      0.000000
    32  O     s       0.001651      0.003624      0.000000      0.000000
    33  Zr    s      -0.006347      0.000000      0.000000      0.000000
    34  O     s       0.000263      0.000000     -0.000449      0.000000
    35  Zr    s       0.000318     -0.000105      0.000000      0.000000
    36  O     s      -0.000010      0.000000      0.000000      0.000000
    37  O     s      -0.000033      0.000000      0.000533      0.000000
    38  O     s      -0.000444      0.000022     -0.000522      0.000000
    39  Zr    s      -0.000085      0.000001      0.000000      0.000000
    40  Zr    s       0.000000      0.000000      0.000045      0.000000
    41  O     s       0.000268      0.000000      0.000188      0.000000
    42  Zr    s       0.000307     -0.000691      0.000000      0.000000
    43  O     s       0.000268      0.000000     -0.000024      0.000000
    44  O     s       0.000057      0.000250      0.000000      0.000000
    45  Zr    s      -0.000134     -0.000077      0.000000      0.000000
    46  O     s       0.000183      0.000000      0.000071      0.000000
    47  O     s      -0.000316     -0.000062     -0.000041      0.000000
    48  O     s       0.000137      0.000088      0.000000      0.000000
    49  Zr    s      -0.000089      0.000000     -0.000065      0.000000
    50  Zr    s      -0.000061      0.000000     -0.000162      0.000000
    51  O     s      -0.000072      0.000000      0.000000      0.000000
    52  O     s       0.000228      0.000164      0.000021      0.000000
    53  Zr    s      -0.000124      0.000000      0.000041      0.000000
    54  O     s       0.000134     -0.000085      0.000189      0.000000
    55  O     s      -0.000001      0.000000      0.000100      0.000000
    56  Zr    s       0.000049     -0.000143     -0.000012      0.000000

  Comparison of initial and final region 1 :

  Parameter   Initial value   Final value   Difference    Units      Percent
      1 x          2.537842      2.537842     0.000000    Cartesian    0.00
      1 y          0.000000      0.000000     0.000000    Cartesian    0.00
      1 z          0.000000      0.000000     0.000000    Cartesian    0.00
      2 x          3.806763      3.913807     0.107044    Cartesian    2.81
      2 y          1.268921      1.375965     0.107044    Cartesian    8.44
      2 z          1.268921      1.375965     0.107044    Cartesian    8.44
      3 x          2.537842      2.537842     0.000000    Cartesian    0.00
      3 y          0.000000      0.000000     0.000000    Cartesian    0.00
      3 z         -2.537842     -2.425625     0.112217    Cartesian   -4.42
      4 x          6.344605      6.387420     0.042815    Cartesian    0.67
      4 y          1.268921      1.273532     0.004611    Cartesian    0.36
      4 z          1.268921      1.273532     0.004611    Cartesian    0.36
      5 x          5.075684      5.073573    -0.002110    Cartesian   -0.04
      5 y          2.537842      2.535731    -0.002110    Cartesian   -0.08
      5 z         -2.537842     -2.535731     0.002110    Cartesian   -0.08
      6 x          6.344605      6.351750     0.007146    Cartesian    0.11
      6 y          3.806763      3.813908     0.007146    Cartesian    0.19
      6 z         -1.268921     -1.270447    -0.001526    Cartesian    0.12
      7 x          7.613525      7.593304    -0.020221    Cartesian   -0.27
      7 y          2.537842      2.514160    -0.023682    Cartesian   -0.93
      7 z          0.000000      0.000000     0.000000    Cartesian    0.00
      8 x          6.344605      6.357702     0.013098    Cartesian    0.21
      8 y          3.806763      3.819860     0.013098    Cartesian    0.34
      8 z          3.806763      3.819860     0.013098    Cartesian    0.34
      9 x          3.806763      3.806994     0.000232    Cartesian    0.01
      9 y         -1.268921     -1.269153    -0.000232    Cartesian    0.02
      9 z          6.344605      6.369194     0.024589    Cartesian    0.39
     10 x         -1.268921     -1.272960    -0.004039    Cartesian    0.32
     10 y          1.268921      1.274986     0.006065    Cartesian    0.48
     10 z         -6.344605     -6.353107    -0.008502    Cartesian    0.13
     11 x          7.613525      7.610302    -0.003224    Cartesian   -0.04
     11 y         -2.537842     -2.532656     0.005186    Cartesian   -0.20
     11 z         -5.075684     -5.072460     0.003224    Cartesian   -0.06
     12 x          2.537842      2.537842     0.000000    Cartesian    0.00
     12 y          0.000000      0.000000     0.000000    Cartesian    0.00
     12 z          7.613525      7.614896     0.001370    Cartesian    0.02
     13 x          6.344605      6.347039     0.002434    Cartesian    0.04
     13 y         -3.806763     -3.809197    -0.002434    Cartesian    0.06
     13 z          6.344605      6.351726     0.007121    Cartesian    0.11
     14 x         -5.075684     -5.065620     0.010064    Cartesian   -0.20
     14 y          2.537842      2.533349    -0.004492    Cartesian   -0.18
     14 z          2.537842      2.533349    -0.004492    Cartesian   -0.18
     15 x          8.882446      8.884085     0.001639    Cartesian    0.02
     15 y          6.344605      6.346244     0.001639    Cartesian    0.03
     15 z         -1.268921     -1.268630     0.000291    Cartesian   -0.02
     16 x          3.806763      3.807163     0.000401    Cartesian    0.01
     16 y          8.882446      8.899595     0.017149    Cartesian    0.19
     16 z          1.268921      1.269321     0.000401    Cartesian    0.03
     17 x         10.151367     10.143412    -0.007955    Cartesian   -0.08
     17 y          5.075684      5.067015    -0.008668    Cartesian   -0.17
     17 z          0.000000      0.000000     0.000000    Cartesian    0.00
     18 x          8.882446      8.886777     0.004330    Cartesian    0.05
     18 y          6.344605      6.348935     0.004330    Cartesian    0.07
     18 z          3.806763      3.807567     0.000804    Cartesian    0.02
     19 x         -6.344605     -6.347569    -0.002964    Cartesian    0.05
     19 y         -3.806763     -3.809233    -0.002470    Cartesian    0.06
     19 z         -1.268921     -1.268673     0.000248    Cartesian   -0.02
     20 x         11.420288     11.424486     0.004198    Cartesian    0.04
     20 y          3.806763      3.809108     0.002345    Cartesian    0.06
     20 z          3.806763      3.809108     0.002345    Cartesian    0.06
     21 x          7.613525      7.610931    -0.002594    Cartesian   -0.03
     21 y         -5.075684     -5.073089     0.002594    Cartesian   -0.05
     21 z          7.613525      7.609466    -0.004060    Cartesian   -0.05
     22 x          5.075684      5.073741    -0.001943    Cartesian   -0.04
     22 y          0.000000      0.000000     0.000000    Cartesian    0.00
     22 z         10.151367     10.149864    -0.001504    Cartesian   -0.01
     23 x         -3.806763     -3.808263    -0.001500    Cartesian    0.04
     23 y          6.344605      6.346105     0.001500    Cartesian    0.02
     23 z          6.344605      6.346105     0.001500    Cartesian    0.02
     24 x         11.420288     11.422863     0.002575    Cartesian    0.02
     24 y          6.344605      6.346977     0.002373    Cartesian    0.04
     24 z          1.268921      1.271678     0.002757    Cartesian    0.22
     25 x         10.151367     10.147084    -0.004283    Cartesian   -0.04
     25 y          7.613525      7.609242    -0.004283    Cartesian   -0.06
     25 z         -2.537842     -2.535257     0.002585    Cartesian   -0.10
     26 x          8.882446      8.884598     0.002152    Cartesian    0.02
     26 y         -3.806763     -3.808304    -0.001542    Cartesian    0.04
     26 z          8.882446      8.886201     0.003754    Cartesian    0.04
     27 x          3.806763      3.807615     0.000852    Cartesian    0.02
     27 y         -1.268921     -1.269773    -0.000852    Cartesian    0.07
     27 z         11.420288     11.432262     0.011974    Cartesian    0.10
     28 x         -2.537842     -2.533200     0.004642    Cartesian   -0.18
     28 y         10.151367     10.141368    -0.009999    Cartesian   -0.10
     28 z          2.537842      2.535922    -0.001919    Cartesian   -0.08
     29 x          2.537842      2.537842     0.000000    Cartesian    0.00
     29 y          0.000000      0.000000     0.000000    Cartesian    0.00
     29 z          0.000000      0.000000     0.000000    Cartesian    0.00
     30 x          3.806763      3.916045     0.109282    Cartesian    2.87
     30 y          1.268921      1.378203     0.109282    Cartesian    8.61
     30 z          1.268921      1.378203     0.109282    Cartesian    8.61
     31 x          2.537842      2.537842     0.000000    Cartesian    0.00
     31 y          0.000000      0.000000     0.000000    Cartesian    0.00
     31 z         -2.537842     -2.437823     0.100019    Cartesian   -3.94
     32 x          6.344605      6.389972     0.045367    Cartesian    0.72
     32 y          1.268921      1.274443     0.005522    Cartesian    0.44
     32 z          1.268921      1.274443     0.005522    Cartesian    0.44
     33 x          5.075684      5.082932     0.007249    Cartesian    0.14
     33 y          2.537842      2.545091     0.007249    Cartesian    0.29
     33 z         -2.537842     -2.545091    -0.007249    Cartesian    0.29
     34 x          6.344605      6.351823     0.007218    Cartesian    0.11
     34 y          3.806763      3.813981     0.007218    Cartesian    0.19
     34 z         -1.268921     -1.270792    -0.001871    Cartesian    0.15
     35 x          7.613525      7.598608    -0.014917    Cartesian   -0.20
     35 y          2.537842      2.519102    -0.018740    Cartesian   -0.74
     35 z          0.000000      0.000000     0.000000    Cartesian    0.00
     36 x          6.344605      6.357772     0.013167    Cartesian    0.21
     36 y          3.806763      3.819930     0.013167    Cartesian    0.35
     36 z          3.806763      3.819930     0.013167    Cartesian    0.35
     37 x          3.806763      3.807118     0.000356    Cartesian    0.01
     37 y         -1.268921     -1.269277    -0.000356    Cartesian    0.03
     37 z          6.344605      6.369753     0.025148    Cartesian    0.40
     38 x         -1.268921     -1.273384    -0.004463    Cartesian    0.35
     38 y          1.268921      1.275423     0.006502    Cartesian    0.51
     38 z         -6.344605     -6.353726    -0.009121    Cartesian    0.14
     39 x          7.613525      7.611276    -0.002249    Cartesian   -0.03
     39 y         -2.537842     -2.533652     0.004190    Cartesian   -0.17
     39 z         -5.075684     -5.073434     0.002249    Cartesian   -0.04
     40 x          2.537842      2.537842     0.000000    Cartesian    0.00
     40 y          0.000000      0.000000     0.000000    Cartesian    0.00
     40 z          7.613525      7.617361     0.003835    Cartesian    0.05
     41 x          6.344605      6.347137     0.002533    Cartesian    0.04
     41 y         -3.806763     -3.809296    -0.002533    Cartesian    0.07
     41 z          6.344605      6.352020     0.007415    Cartesian    0.12
     42 x         -5.075684     -5.068347     0.007336    Cartesian   -0.14
     42 y          2.537842      2.534142    -0.003700    Cartesian   -0.15
     42 z          2.537842      2.534142    -0.003700    Cartesian   -0.15
     43 x          8.882446      8.884150     0.001703    Cartesian    0.02
     43 y          6.344605      6.346308     0.001703    Cartesian    0.03
     43 z         -1.268921     -1.268711     0.000210    Cartesian   -0.02
     44 x          3.806763      3.807106     0.000344    Cartesian    0.01
     44 y          8.882446      8.900029     0.017583    Cartesian    0.20
     44 z          1.268921      1.269264     0.000344    Cartesian    0.03
     45 x         10.151367     10.144843    -0.006524    Cartesian   -0.06
     45 y          5.075684      5.068614    -0.007070    Cartesian   -0.14
     45 z          0.000000      0.000000     0.000000    Cartesian    0.00
     46 x          8.882446      8.886987     0.004541    Cartesian    0.05
     46 y          6.344605      6.349145     0.004541    Cartesian    0.07
     46 z          3.806763      3.807646     0.000884    Cartesian    0.02
     47 x         -6.344605     -6.347764    -0.003160    Cartesian    0.05
     47 y         -3.806763     -3.809480    -0.002717    Cartesian    0.07
     47 z         -1.268921     -1.268733     0.000188    Cartesian   -0.01
     48 x         11.420288     11.424861     0.004572    Cartesian    0.04
     48 y          3.806763      3.809280     0.002517    Cartesian    0.07
     48 z          3.806763      3.809280     0.002517    Cartesian    0.07
     49 x          7.613525      7.611469    -0.002056    Cartesian   -0.03
     49 y         -5.075684     -5.073627     0.002056    Cartesian   -0.04
     49 z          7.613525      7.610192    -0.003334    Cartesian   -0.04
     50 x          5.075684      5.074166    -0.001518    Cartesian   -0.03
     50 y          0.000000      0.000000     0.000000    Cartesian    0.00
     50 z         10.151367     10.150929    -0.000438    Cartesian   -0.00
     51 x         -3.806763     -3.808273    -0.001510    Cartesian    0.04
     51 y          6.344605      6.346115     0.001510    Cartesian    0.02
     51 z          6.344605      6.346115     0.001510    Cartesian    0.02
     52 x         11.420288     11.423031     0.002742    Cartesian    0.02
     52 y          6.344605      6.347070     0.002465    Cartesian    0.04
     52 z          1.268921      1.271970     0.003049    Cartesian    0.24
     53 x         10.151367     10.147721    -0.003646    Cartesian   -0.04
     53 y          7.613525      7.609879    -0.003646    Cartesian   -0.05
     53 z         -2.537842     -2.535647     0.002195    Cartesian   -0.09
     54 x          8.882446      8.884586     0.002140    Cartesian    0.02
     54 y         -3.806763     -3.808272    -0.001509    Cartesian    0.04
     54 z          8.882446      8.886315     0.003869    Cartesian    0.04
     55 x          3.806763      3.807629     0.000866    Cartesian    0.02
     55 y         -1.268921     -1.269787    -0.000866    Cartesian    0.07
     55 z         11.420288     11.432541     0.012253    Cartesian    0.11
     56 x         -2.537842     -2.533844     0.003998    Cartesian   -0.16
     56 y         10.151367     10.142811    -0.008557    Cartesian   -0.08
     56 z          2.537842      2.536194    -0.001647    Cartesian   -0.06

  Time to end of optimisation  =        6.1867 seconds

  Timing analysis for GULP :

  Task / Subroutine                                          Time (Seconds)
  Calculation of reciprocal space energy and derivatives          0.0004
  Calculation of reciprocal space energy using symmetry           0.0004
  Calculation of real space energy and derivatives                0.0032
  Calculation of real space energy using symmetry                 0.0126
  Calculation for region 1 energy and derivatives (2-b)           2.7157
  Calculation for region 2a energy                                2.9503
  Calculation for region 2b energy                                0.0002
  Calculation and manipulation of Hessian matrix                  0.0886
  Calculation of matrix inversion                                 0.0008
  Symmetry generation of equivalent positions                     0.0031

  Dump file written as ZrO2.grs

  Job Finished at 12:37.34  6th October    2020