  Job Started  at 16:24.12  2nd October    2020

  Number of CPUs =     1

  Total number of configurations input =      1

*  Input for Configuration =   1 : NaCl                                        *

  Formula = NaCl

  Number of irreducible atoms/shells =       4

  Total number atoms/shells =       4

  Dimensionality = 3               :  Bulk

  Symmetry :

  Crystal family                   :  Cubic
  Crystal class  (Groth - 1921)    :  Cubic Hexakisoctahedral

  Space group (centrosymmetric)    :  F M 3 M

  Patterson group                  :  F m -3 m

  Cartesian lattice vectors (Angstroms) :

        0.000000    2.789000    2.789000
        2.789000    0.000000    2.789000
        2.789000    2.789000    0.000000

  Primitive cell parameters :            Full cell parameters :

  a =   3.9442    alpha =  60.0000       a =   5.5780    alpha =  90.0000
  b =   3.9442    beta  =  60.0000       b =   5.5780    beta  =  90.0000
  c =   3.9442    gamma =  60.0000       c =   5.5780    gamma =  90.0000

  Initial volumes (Angstroms**3):

  Primitive cell =          43.388590    Full cell =         173.554361

  Temperature of configuration =   0.00     K

  Pressure of configuration =         0.000 GPa

  Fractional coordinates of asymmetric unit :

   No.  Atomic       x           y          z         Charge      Occupancy
        Label      (Frac)      (Frac)     (Frac)        (e)         (Frac)
      1 Na    c    0.000000    0.000000    0.000000    -1.12800    1.000000
      2 Cl    c    0.500000    0.000000    0.000000     1.48500    1.000000
      3 Na    s    0.000000    0.000000    0.000000     2.12800    1.000000
      4 Cl    s    0.500000    0.000000    0.000000    -2.48500    1.000000

  Constraints :

  Constraint no.      Unconstrained     Constrained    Coefficient    Offset
                         Variable         Variable
           1              Strain 1        Strain 2       1.00000      0.0000
           2              Strain 1        Strain 3       1.00000      0.0000

*  General input information                                                   *

  Species output for all configurations :

  Species    Type    Atomic    Atomic    Charge       Radii (Angs)     Library
                     Number     Mass       (e)     Cova   Ionic  VDW   Symbol
    Na       Core       11      22.99  -1.128000   0.970  0.000  2.300
    Na       Shell      11       0.00   2.128000   0.970  0.000  2.300
    Cl       Core       17      35.45   1.485000   0.990  0.000  1.650
    Cl       Shell      17       0.00  -2.485000   0.990  0.000  1.650

  Lattice summation method               =    Ewald          (3-D)
                                         =    Parry          (2-D)
                                         =    Saunders et al (1-D)
  Accuracy factor for lattice sums       =   12.000

  Analytic derivatives to be used

  Time limit = Infinity

  Maximum range for interatomic potentials =    100000.000000 Angstroms

  General interatomic potentials :

Atom  Types   Potential      Parameter       Value         Units   Cutoffs(Ang)
  1     2                                                            Min /  Max
Na   s Na   s Buckingham    Buckingham A     7895.0000    eV        0.000 12.000
                            Buckingham rho  0.17090000    Ang
                            Buckingham C     14.530000    eV*Ang^6
Na   s Cl   s Buckingham    Buckingham A     2314.7000    eV        0.000 12.000
                            Buckingham rho  0.29030000    Ang
                            Buckingham C     0.0000000    eV*Ang^6
Cl   s Cl   s Buckingham    Buckingham A     1227.2000    eV        0.000 12.000
                            Buckingham rho  0.32140000    Ang
                            Buckingham C     14.530000    eV*Ang^6
Na   c Na   s Spring (c-s)  Spring k 2       96.440000    eV*Ang^-2 0.000  0.800
                            Spring k 4       0.0000000    eV*Ang^-4
Cl   c Cl   s Spring (c-s)  Spring k 2       29.380000    eV*Ang^-2 0.000  0.800
                            Spring k 4       0.0000000    eV*Ang^-4

*  Output for configuration   1 : NaCl                                         *

  Components of energy :

  Interatomic potentials     =           0.91447856 eV
  Monopole - monopole (real) =          -0.72412017 eV
  Monopole - monopole (recip)=          -8.29865070 eV
  Monopole - monopole (total)=          -9.02277087 eV
  Total lattice energy :
    Primitive unit cell      =          -8.10829230 eV
    Non-primitive unit cell  =         -32.43316921 eV
  Total lattice energy (in kJmol-1):
    Primitive unit cell      =            -782.3263 kJ/(mole unit cells)
    Non-primitive unit cell  =           -3129.3050 kJ/(mole unit cells)

  Number of variables =        1

  Maximum number of calculations  =          1000
  Maximum Hessian update interval =            10
  Maximum step size               =   1.000000000
  Maximum parameter tolerance     =   0.000010000
  Maximum function  tolerance     =   0.000010000
  Maximum gradient  tolerance     =   0.001000000
  Maximum gradient  component     =   0.010000000

  Symmetry constrained optimisation

  Symmetry used for second derivatives

  Cell parameters to be optimised using strains

  Newton-Raphson optimiser to be used

  BFGS hessian update to be used

  Lower half triangular hessian to be used

  Start of bulk optimisation :

  ** Hessian calculated **

  **** Optimisation achieved ****

  Final energy =      -8.10831952 eV
  Final Gnorm  =       0.00000017

  Components of energy :

  Interatomic potentials     =           0.90655178 eV
  Monopole - monopole (real) =          -0.72348619 eV
  Monopole - monopole (recip)=          -8.29138511 eV
  Monopole - monopole (total)=          -9.01487130 eV
  Total lattice energy :
    Primitive unit cell      =          -8.10831952 eV
    Non-primitive unit cell  =         -32.43327809 eV
  Total lattice energy (in kJmol-1):
    Primitive unit cell      =            -782.3289 kJ/(mole unit cells)
    Non-primitive unit cell  =           -3129.3155 kJ/(mole unit cells)

  Final asymmetric unit coordinates :

   No.  Atomic        x           y           z         Radius
        Label       (Frac)      (Frac)      (Frac)       (Angs)
     1  Na    c     0.000000    0.000000    0.000000    0.000000
     2  Cl    c     0.500000    0.000000    0.000000    0.000000
     3  Na    s     0.000000    0.000000    0.000000    0.000000
     4  Cl    s     0.500000    0.000000    0.000000    0.000000

  Final Cartesian lattice vectors (Angstroms) :

        0.000000    2.791444    2.791444
        2.791444    0.000000    2.791444
        2.791444    2.791444    0.000000

  Final cell parameters and derivatives :

       a            3.947698 Angstrom     dE/de1(xx)    -0.000000 eV/strain
       b            3.947698 Angstrom     dE/de2(yy)     0.000000 eV/strain
       c            3.947698 Angstrom     dE/de3(zz)     0.000000 eV/strain
       alpha       60.000000 Degrees      dE/de4(yz)     0.000000 eV/strain
       beta        60.000000 Degrees      dE/de5(xz)     0.000000 eV/strain
       gamma       60.000000 Degrees      dE/de6(xy)     0.000000 eV/strain

  Primitive cell volume =            43.502752 Angs**3

  Density of cell =      2.230743 g/cm**3

  Non-primitive lattice parameters :

  a    =     5.582888  b   =     5.582888  c    =     5.582888
  alpha=    90.000000  beta=    90.000000  gamma=    90.000000

  Non-primitive cell volume =           174.011008 Angs**3

  Final internal derivatives :

   No.  Atomic          a             b             c           Radius
        Label          (eV)          (eV)          (eV)        (eV/Angs)
      1 Na    c       0.000000      0.000000      0.000000      0.000000
      2 Cl    c       0.000000      0.000000      0.000000      0.000000
      3 Na    s       0.000000      0.000000      0.000000      0.000000
      4 Cl    s       0.000000      0.000000      0.000000      0.000000
  Maximum abs         0.000000      0.000000      0.000000      0.000000

  Born effective charge tensors :

  Atom             x           y             z
    1 Na    x       1.0608      0.0000      0.0000
            y       0.0000      1.0608      0.0000
            z       0.0000      0.0000      1.0608
    2 Cl    x      -1.0608     -0.0000     -0.0000
            y      -0.0000     -1.0608     -0.0000
            z      -0.0000     -0.0000     -1.0608

  Elastic Constant Matrix: (Units=GPa)

  Indices      1         2         3         4         5         6
       1     58.2962   14.2997   14.2997   -0.0000    0.0000   -0.0000
       2     14.2997   58.2962   14.2997    0.0000    0.0000   -0.0000
       3     14.2997   14.2997   58.2962    0.0000    0.0000   -0.0000
       4     -0.0000    0.0000    0.0000   14.2997    0.0000   -0.0000
       5      0.0000    0.0000    0.0000    0.0000   14.2997   -0.0000
       6     -0.0000   -0.0000   -0.0000   -0.0000   -0.0000   14.2997

  Elastic Compliance Matrix: (Units=1/GPa)

  Indices      1         2         3         4         5         6
       1    0.018989 -0.003740 -0.003740  0.000000 -0.000000 -0.000000
       2   -0.003740  0.018989 -0.003740 -0.000000 -0.000000  0.000000
       3   -0.003740 -0.003740  0.018989 -0.000000 -0.000000  0.000000
       4    0.000000 -0.000000 -0.000000  0.069931 -0.000000  0.000000
       5   -0.000000 -0.000000 -0.000000 -0.000000  0.069931  0.000000
       6   -0.000000  0.000000  0.000000  0.000000  0.000000  0.069931

  Mechanical properties :

  Convention :                    Reuss         Voigt         Hill
  Bulk  Modulus (GPa)     =      28.96523      28.96523      28.96523
  Shear Modulus (GPa)     =      16.62729      17.37914      17.00321
  Velocity S-wave (km/s)  =       2.73015       2.79119       2.76084
  Velocity P-wave (km/s)  =       4.78778       4.83448       4.81119
  Compressibility (1/GPa) =    0.03452416
  Stress axis :                     x             y             z
  Youngs Moduli (GPa)     =      52.66277      52.66277      52.66277
  Poissons Ratio (x)      =                     0.19698       0.19698
  Poissons Ratio (y)      =       0.19698                     0.19698
  Poissons Ratio (z)      =       0.19698       0.19698

  Piezoelectric Strain Matrix: (Units=C/m**2)

  Indices      1         2         3         4         5         6
       x    -0.00000  -0.00000  -0.00000  -0.00000  -0.00000  -0.00000
       y    -0.00000   0.00000  -0.00000  -0.00000  -0.00000  -0.00000
       z    -0.00000  -0.00000   0.00000  -0.00000  -0.00000  -0.00000

  Piezoelectric Stress Matrix: (Units=10**-11 C/N)

  Indices      1         2         3         4         5         6
       x    -0.00000  -0.00000  -0.00000  -0.00000  -0.00000  -0.00000
       y    -0.00000   0.00000  -0.00000  -0.00000  -0.00000  -0.00000
       z    -0.00000  -0.00000   0.00000  -0.00000  -0.00000  -0.00000

  Static dielectric constant tensor :

              x         y         z
       x     5.49480   0.00000   0.00000
       y     0.00000   5.49480  -0.00000
       z     0.00000  -0.00000   5.49480

[...]
    18  Na    c    -0.015369    2.806813   -2.869672    0.000000   -1.128000
    19  Na    c     2.806813    2.806813    5.661116    0.000000   -1.128000
    20  Na    c    -0.015369   -0.015369    5.661116    0.000000   -1.128000
    21  Na    c     2.806813   -0.015369   -2.869672    0.000000   -1.128000
    22  Cl    c    -2.857680   -0.004896   -0.004896    0.000000    1.485000
    23  Cl    c     2.796340    5.649124   -0.004896    0.000000    1.485000
    24  Cl    c    -2.857680    2.796340    2.796340    0.000000    1.485000
    25  Cl    c    -0.004896    5.649124    2.796340    0.000000    1.485000
    26  Cl    c    -0.004896   -2.857680   -0.004896    0.000000    1.485000
    27  Cl    c     5.649124    2.796340   -0.004896    0.000000    1.485000
    28  Cl    c     2.796340   -2.857680    2.796340    0.000000    1.485000
    29  Cl    c     5.649124   -0.004896    2.796340    0.000000    1.485000
    30  Cl    c     2.796340   -0.004896    5.649124    0.000000    1.485000
    31  Cl    c    -0.004896    2.796340    5.649124    0.000000    1.485000
    32  Cl    c    -0.004896   -0.004896   -2.857680    0.000000    1.485000
    33  Cl    c     2.796340    2.796340   -2.857680    0.000000    1.485000
    34  Na    c     5.644982    5.644982   -0.002368    0.000000   -1.128000
    35  Na    c    -2.853538   -2.853538   -0.002368    0.000000   -1.128000
    36  Na    c     5.644982   -0.002368    5.644982    0.000000   -1.128000
    37  Na    c     2.793812   -2.853538    5.644982    0.000000   -1.128000
    38  Na    c     2.793812    5.644982   -2.853538    0.000000   -1.128000
    39  Na    c    -2.853538   -0.002368   -2.853538    0.000000   -1.128000
    40  Na    c    -0.002368    5.644982    5.644982    0.000000   -1.128000
    41  Na    c    -2.853538    2.793812    5.644982    0.000000   -1.128000
    42  Na    c    -2.853538    5.644982    2.793812    0.000000   -1.128000
    43  Na    c     5.644982    2.793812   -2.853538    0.000000   -1.128000
    44  Na    c    -0.002368   -2.853538   -2.853538    0.000000   -1.128000
    45  Na    c     5.644982   -2.853538    2.793812    0.000000   -1.128000
    46  Cl    c     5.574740    5.574740    2.778769    0.000000    1.485000
    47  Cl    c    -2.783296   -2.783296    2.778769    0.000000    1.485000
    48  Cl    c     5.574740    2.778769    5.574740    0.000000    1.485000
    49  Cl    c     0.012675   -2.783296    5.574740    0.000000    1.485000
    50  Cl    c    -2.783296    2.778769   -2.783296    0.000000    1.485000
    51  Cl    c     0.012675    5.574740   -2.783296    0.000000    1.485000
    52  Cl    c     2.778769    5.574740    5.574740    0.000000    1.485000
    53  Cl    c    -2.783296    0.012675    5.574740    0.000000    1.485000
    54  Cl    c    -2.783296    5.574740    0.012675    0.000000    1.485000
    55  Cl    c     2.778769   -2.783296   -2.783296    0.000000    1.485000
    56  Cl    c     5.574740    0.012675   -2.783296    0.000000    1.485000
    57  Cl    c     5.574740   -2.783296    0.012675    0.000000    1.485000
    58  Na    c     5.587569    5.587569    5.587569    0.000000   -1.128000
    59  Na    c    -2.796125   -2.796125    5.587569    0.000000   -1.128000
    60  Na    c    -2.796125    5.587569   -2.796125    0.000000   -1.128000
[...]
   195  Na    c     8.397907    2.795577   -5.606463    0.000000   -1.128000
   196  Na    c    -0.004133   -5.606463   -5.606463    0.000000   -1.128000
   197  Na    c     8.397907   -5.606463    2.795577    0.000000   -1.128000
   198  Cl    c     8.364026    8.364026    2.786725    0.000000    1.485000
   199  Cl    c    -5.572582   -5.572582    2.786725    0.000000    1.485000
   200  Cl    c     8.364026    2.786725    8.364026    0.000000    1.485000
   201  Cl    c     0.004719   -5.572582    8.364026    0.000000    1.485000
   202  Cl    c    -5.572582    2.786725   -5.572582    0.000000    1.485000
   203  Cl    c     0.004719    8.364026   -5.572582    0.000000    1.485000
   204  Cl    c     2.786725    8.364026    8.364026    0.000000    1.485000
   205  Cl    c    -5.572582    0.004719    8.364026    0.000000    1.485000
   206  Cl    c    -5.572582    8.364026    0.004719    0.000000    1.485000
   207  Cl    c     2.786725   -5.572582   -5.572582    0.000000    1.485000
   208  Cl    c     8.364026    0.004719   -5.572582    0.000000    1.485000
   209  Cl    c     8.364026   -5.572582    0.004719    0.000000    1.485000
   210  Na    s     1.395722    1.395722    1.395722    0.000000    2.128000
   211  Na    s     3.059317    3.059317   -0.267873    0.000000    2.128000
   212  Na    s    -0.267873   -0.267873   -0.267873    0.000000    2.128000
   213  Na    s     3.059317   -0.267873    3.059317    0.000000    2.128000
   214  Na    s    -0.267873    3.059317    3.059317    0.000000    2.128000
   215  Cl    s    -0.011800   -0.011800    2.803244    0.000000   -2.485000
   216  Cl    s     2.803244    2.803244    2.803244    0.000000   -2.485000
   217  Cl    s    -0.011800    2.803244   -0.011800    0.000000   -2.485000
   218  Cl    s     2.803244   -0.011800   -0.011800    0.000000   -2.485000
   219  Na    s     5.663430    2.807729    2.807729    0.000000    2.128000
   220  Na    s    -0.016286   -2.871986    2.807729    0.000000    2.128000
   221  Na    s     2.807729    5.663430    2.807729    0.000000    2.128000
   222  Na    s    -2.871986   -0.016286    2.807729    0.000000    2.128000
   223  Na    s    -0.016286    5.663430   -0.016286    0.000000    2.128000
   224  Na    s    -2.871986    2.807729   -0.016286    0.000000    2.128000
   225  Na    s     5.663430   -0.016286   -0.016286    0.000000    2.128000
   226  Na    s     2.807729   -2.871986   -0.016286    0.000000    2.128000
   227  Na    s    -0.016286    2.807729   -2.871986    0.000000    2.128000
   228  Na    s     2.807729    2.807729    5.663430    0.000000    2.128000
   229  Na    s    -0.016286   -0.016286    5.663430    0.000000    2.128000
   230  Na    s     2.807729   -0.016286   -2.871986    0.000000    2.128000
   231  Cl    s    -2.833234   -0.007172   -0.007172    0.000000   -2.485000
   232  Cl    s     2.798616    5.624678   -0.007172    0.000000   -2.485000
   233  Cl    s    -2.833234    2.798616    2.798616    0.000000   -2.485000
   234  Cl    s    -0.007172    5.624678    2.798616    0.000000   -2.485000
   235  Cl    s    -0.007172   -2.833234   -0.007172    0.000000   -2.485000
   236  Cl    s     5.624678    2.798616   -0.007172    0.000000   -2.485000
   237  Cl    s     2.798616   -2.833234    2.798616    0.000000   -2.485000
   238  Cl    s     5.624678   -0.007172    2.798616    0.000000   -2.485000
   239  Cl    s     2.798616   -0.007172    5.624678    0.000000   -2.485000
   240  Cl    s    -0.007172    2.798616    5.624678    0.000000   -2.485000
   241  Cl    s    -0.007172   -0.007172   -2.833234    0.000000   -2.485000
   242  Cl    s     2.798616    2.798616   -2.833234    0.000000   -2.485000
   243  Na    s     5.646905    5.646905   -0.002447    0.000000    2.128000
   244  Na    s    -2.855461   -2.855461   -0.002447    0.000000    2.128000
   245  Na    s     5.646905   -0.002447    5.646905    0.000000    2.128000
   246  Na    s     2.793891   -2.855461    5.646905    0.000000    2.128000
   247  Na    s     2.793891    5.646905   -2.855461    0.000000    2.128000
   248  Na    s    -2.855461   -0.002447   -2.855461    0.000000    2.128000
   249  Na    s    -0.002447    5.646905    5.646905    0.000000    2.128000
   250  Na    s    -2.855461    2.793891    5.646905    0.000000    2.128000
   251  Na    s    -2.855461    5.646905    2.793891    0.000000    2.128000
   252  Na    s     5.646905    2.793891   -2.855461    0.000000    2.128000
   253  Na    s    -0.002447   -2.855461   -2.855461    0.000000    2.128000
   254  Na    s     5.646905   -2.855461    2.793891    0.000000    2.128000
   255  Cl    s     5.571439    5.571439    2.776910    0.000000   -2.485000
   256  Cl    s    -2.779995   -2.779995    2.776910    0.000000   -2.485000
   257  Cl    s     5.571439    2.776910    5.571439    0.000000   -2.485000
   258  Cl    s     0.014534   -2.779995    5.571439    0.000000   -2.485000
   259  Cl    s    -2.779995    2.776910   -2.779995    0.000000   -2.485000
   260  Cl    s     0.014534    5.571439   -2.779995    0.000000   -2.485000
   261  Cl    s     2.776910    5.571439    5.571439    0.000000   -2.485000
   262  Cl    s    -2.779995    0.014534    5.571439    0.000000   -2.485000
   263  Cl    s    -2.779995    5.571439    0.014534    0.000000   -2.485000
   264  Cl    s     2.776910   -2.779995   -2.779995    0.000000   -2.485000
   265  Cl    s     5.571439    0.014534   -2.779995    0.000000   -2.485000
   266  Cl    s     5.571439   -2.779995    0.014534    0.000000   -2.485000
   267  Na    s     5.588276    5.588276    5.588276    0.000000    2.128000
   268  Na    s    -2.796832   -2.796832    5.588276    0.000000    2.128000
   269  Na    s    -2.796832    5.588276   -2.796832    0.000000    2.128000
[...]
   404  Na    s     8.398660    2.795625   -5.607216    0.000000    2.128000
   405  Na    s    -0.004181   -5.607216   -5.607216    0.000000    2.128000
   406  Na    s     8.398660   -5.607216    2.795625    0.000000    2.128000
   407  Cl    s     8.361522    8.361522    2.786423    0.000000   -2.485000
   408  Cl    s    -5.570078   -5.570078    2.786423    0.000000   -2.485000
   409  Cl    s     8.361522    2.786423    8.361522    0.000000   -2.485000
   410  Cl    s     0.005021   -5.570078    8.361522    0.000000   -2.485000
   411  Cl    s    -5.570078    2.786423   -5.570078    0.000000   -2.485000
   412  Cl    s     0.005021    8.361522   -5.570078    0.000000   -2.485000
   413  Cl    s     2.786423    8.361522    8.361522    0.000000   -2.485000
   414  Cl    s    -5.570078    0.005021    8.361522    0.000000   -2.485000
   415  Cl    s    -5.570078    8.361522    0.005021    0.000000   -2.485000
   416  Cl    s     2.786423   -5.570078   -5.570078    0.000000   -2.485000
   417  Cl    s     8.361522    0.005021   -5.570078    0.000000   -2.485000
   418  Cl    s     8.361522   -5.570078    0.005021    0.000000   -2.485000

  Final coordinates of symmetry reduced region 1 (relative to defect centre):

   No.  Atomic        x           y           z          Charge
        Label       (Angs)      (Angs)      (Angs)         (e)
     1  Na    c     0.000000    0.000000    0.000000   -1.128000
     2  Na    c     1.655880    1.655880   -1.655880   -1.128000
     3  Cl    c    -1.440686   -1.440686    1.440686    1.485000
     4  Na    c     4.265394    1.411091    1.411091   -1.128000
     5  Cl    c    -4.253402   -1.400618   -1.400618    1.485000
     6  Na    c     4.249260    4.249260   -1.398090   -1.128000
     7  Cl    c     4.179018    4.179018    1.383047    1.485000
     8  Na    c     4.191847    4.191847    4.191847   -1.128000
     9  Cl    c    -4.176733    4.176733    4.176733    1.485000
    10  Na    c     1.401295   -1.401295    7.034382   -1.128000
    11  Cl    c     1.395448    1.395448    6.999108    1.485000
    12  Na    c     6.997651    4.196775    1.398044   -1.128000
    13  Cl    c     4.191303   -1.398125    6.989077    1.485000
    14  Na    c     4.198448   -4.198448    6.997669   -1.128000
    15  Cl    c     6.966603    4.178995    4.178995    1.485000
    16  Na    c     1.401934    1.401934    9.801283   -1.128000
    17  Cl    c     1.392425   -1.392425    9.772843    1.485000
    18  Na    c     7.002185    7.002185   -1.399855   -1.128000
    19  Cl    c     6.968304    6.968304    1.391003    1.485000
    20  Na    s     0.000000    0.000000    0.000000    2.128000
    21  Na    s     1.663595    1.663595   -1.663595    2.128000
    22  Cl    s    -1.407522   -1.407522    1.407522   -2.485000
    23  Na    s     4.267708    1.412008    1.412008    2.128000
    24  Cl    s    -4.228956   -1.402894   -1.402894   -2.485000
    25  Na    s     4.251183    4.251183   -1.398169    2.128000
    26  Cl    s     4.175717    4.175717    1.381188   -2.485000
    27  Na    s     4.192554    4.192554    4.192554    2.128000
    28  Cl    s    -4.174401    4.174401    4.174401   -2.485000
    29  Na    s     1.401424   -1.401424    7.035694    2.128000
    30  Cl    s     1.395299    1.395299    6.991457   -2.485000
    31  Na    s     6.998529    4.197378    1.398342    2.128000
    32  Cl    s     4.189939   -1.397700    6.984780   -2.485000
    33  Na    s     4.198781   -4.198781    6.998625    2.128000
    34  Cl    s     6.964313    4.177449    4.177449   -2.485000
    35  Na    s     1.402078    1.402078    9.802102    2.128000
    36  Cl    s     1.392663   -1.392663    9.767144   -2.485000
    37  Na    s     7.002938    7.002938   -1.399903    2.128000
    38  Cl    s     6.965800    6.965800    1.390701   -2.485000

  Final derivatives for region 1 :

   No.  Atomic          x             y             z            Radius
        Label       (eV/Angs)     (eV/Angs)     (eV/Angs)       (eV/Angs)
     1  Na    c       0.000000      0.000000      0.000000      0.000000
     2  Na    c       0.001308      0.000000      0.000000      0.000000
     3  Cl    c       0.000846      0.000000      0.000000      0.000000
     4  Na    c      -0.001394     -0.001820      0.000000      0.000000
     5  Cl    c      -0.003208     -0.001097      0.000000      0.000000
     6  Na    c      -0.001287      0.000000      0.000682      0.000000
     7  Cl    c       0.001942      0.000000      0.000327      0.000000
     8  Na    c      -0.000428      0.000000      0.000000      0.000000
     9  Cl    c      -0.000253      0.000000      0.000000      0.000000
    10  Na    c      -0.000478      0.000000     -0.000085      0.000000
    11  Cl    c       0.000258      0.000000      0.000831      0.000000
    12  Na    c      -0.000885     -0.000590     -0.000130      0.000000
    13  Cl    c       0.000778     -0.000351      0.000818      0.000000
    14  Na    c      -0.000356      0.000000     -0.000248      0.000000
    15  Cl    c       0.000431      0.000506      0.000000      0.000000
    16  Na    c      -0.000134      0.000000     -0.000259      0.000000
    17  Cl    c       0.000135      0.000000      0.000310      0.000000
    18  Na    c      -0.000391      0.000000      0.000076      0.000000
    19  Cl    c       0.000618      0.000000      0.000026      0.000000
    20  Na    s       0.000000      0.000000      0.000000      0.000000
    21  Na    s      -0.008777      0.000000      0.000000      0.000000
    22  Cl    s       0.002372      0.000000      0.000000      0.000000
    23  Na    s       0.002467      0.002783      0.000000      0.000000
    24  Cl    s       0.001960      0.001573      0.000000      0.000000
    25  Na    s       0.001900      0.000000     -0.001188      0.000000
    26  Cl    s      -0.003035      0.000000     -0.000435      0.000000
    27  Na    s       0.000777      0.000000      0.000000      0.000000
    28  Cl    s       0.000238      0.000000      0.000000      0.000000
    29  Na    s       0.000775      0.000000      0.001096      0.000000
    30  Cl    s      -0.000485      0.000000     -0.001328      0.000000
    31  Na    s       0.001725      0.001073      0.000205      0.000000
    32  Cl    s      -0.001184      0.000607     -0.001641      0.000000
    33  Na    s       0.000656      0.000000      0.000417      0.000000
    34  Cl    s      -0.000719     -0.000835      0.000000      0.000000
    35  Na    s       0.000203      0.000000      0.000680      0.000000
    36  Cl    s      -0.000236      0.000000     -0.000806      0.000000
    37  Na    s       0.000819      0.000000     -0.000137      0.000000
    38  Cl    s      -0.001012      0.000000     -0.000035      0.000000

  Time to end of optimisation  =        1.0134 seconds

  Timing analysis for GULP :

  Task / Subroutine                                          Time (Seconds)
  Calculation of reciprocal space energy and derivatives          0.0003
  Calculation of reciprocal space energy using symmetry           0.0006
  Calculation of real space energy and derivatives                0.0018
  Calculation of real space energy using symmetry                 0.0141
  Calculation for region 1 energy and derivatives (2-b)           0.4265
  Calculation for region 2a energy                                0.5003
  Calculation and manipulation of Hessian matrix                  0.0109
  Calculation of matrix inversion                                 0.0002
  Symmetry generation of equivalent positions                     0.0063

  Dump file written as NaCl.grs

  Job Finished at 16:24.13  2nd October    2020