  Job Started  at 15:00.17 23rd October    2020

  Number of CPUs =     1

  Total number of configurations input =      1

*  Input for Configuration =   1                                               *

  Formula = ClOLi3

  Number of irreducible atoms/shells =       5

  Total number atoms/shells =       7

  Dimensionality = 3               :  Bulk

  Symmetry :

  Crystal family                   :  Cubic
  Crystal class  (Groth - 1921)    :  Cubic Hexakisoctahedral

  Space group (centrosymmetric)    :  P M 3 M

  Patterson group                  :  P m -3 m

  Cartesian lattice vectors (Angstroms) :

        3.918873    0.000000    0.000000
        0.000000    3.918873    0.000000
        0.000000    0.000000    3.918873

  Cell parameters (Angstroms/Degrees):

  a =       3.9189    alpha =  90.0000
  b =       3.9189    beta  =  90.0000
  c =       3.9189    gamma =  90.0000

  Initial cell volume =          60.184349 Angs**3

  Temperature of configuration =   0.00     K

  Pressure of configuration =         0.000 GPa

  Fractional coordinates of asymmetric unit :

   No.  Atomic       x           y          z         Charge      Occupancy
        Label      (Frac)      (Frac)     (Frac)        (e)         (Frac)
      1 Cl    c    0.000000    0.000000    0.000000     1.48500    1.000000
      2 O     c    0.500000    0.500000    0.500000     0.18300    1.000000
      3 Li    c    0.500000    0.500000    0.000000     1.00000    1.000000
      4 Cl    s    0.000000    0.000000    0.000000    -2.48500    1.000000
      5 O     s    0.500000    0.500000    0.500000    -2.18300    1.000000

  Constraints :

  Constraint no.      Unconstrained     Constrained    Coefficient    Offset
                         Variable         Variable
           1              Strain 1        Strain 2       1.00000      0.0000
           2              Strain 1        Strain 3       1.00000      0.0000

*  General input information                                                   *

  Species output for all configurations :

  Species    Type    Atomic    Atomic    Charge       Radii (Angs)     Library
                     Number     Mass       (e)     Cova   Ionic  VDW   Symbol
    Li       Core        3       6.94   1.000000   0.680  0.000  1.800
    O        Core        8      16.00   0.183000   0.730  0.000  1.360
    O        Shell       8       0.00  -2.183000   0.730  0.000  1.360
    Cl       Core       17      35.45   1.485000   0.990  0.000  1.650
    Cl       Shell      17       0.00  -2.485000   0.990  0.000  1.650

  Lattice summation method               =    Ewald          (3-D)
                                         =    Parry          (2-D)
                                         =    Saunders et al (1-D)
  Accuracy factor for lattice sums       =   12.000

  Analytic derivatives to be used

  Time limit = Infinity

  Maximum range for interatomic potentials =    100000.000000 Angstroms

  General interatomic potentials :

Atom  Types   Potential      Parameter       Value         Units   Cutoffs(Ang)
  1     2                                                            Min /  Max
O    c O    s Spring (c-s)  Spring k 2       593.72000    eV*Ang^-2 0.000  0.800
                            Spring k 4       0.0000000    eV*Ang^-4
Cl   c Cl   s Spring (c-s)  Spring k 2       29.380000    eV*Ang^-2 0.000  0.800
                            Spring k 4       0.0000000    eV*Ang^-4
Li   c Li   c Buckingham    Buckingham A     360.53000    eV        0.000 12.000
                            Buckingham rho  0.16100000    Ang
                            Buckingham C     0.0000000    eV*Ang^6
Li   c O    s Buckingham    Buckingham A     292.30000    eV        0.000 12.000
                            Buckingham rho  0.34720000    Ang
                            Buckingham C     0.0000000    eV*Ang^6
Li   c Cl   s Buckingham    Buckingham A     421.04000    eV        0.000 12.000
                            Buckingham rho  0.33400000    Ang
                            Buckingham C     0.0000000    eV*Ang^6
O    s O    s Buckingham    Buckingham A     22764.300    eV        0.000 12.000
                            Buckingham rho  0.14900000    Ang
                            Buckingham C     13.190000    eV*Ang^6
O    s Cl   s Buckingham    Buckingham A     8286.9100    eV        0.000 12.000
                            Buckingham rho  0.25900000    Ang
                            Buckingham C     62.200000    eV*Ang^6
Cl   s Cl   s Buckingham    Buckingham A     1227.2000    eV        0.000 12.000
                            Buckingham rho  0.32100000    Ang
                            Buckingham C     14.530000    eV*Ang^6

*  Output for configuration   1                                                *

  Components of energy :

  Interatomic potentials     =           7.26836263 eV
  Monopole - monopole (real) =         -11.53475722 eV
  Monopole - monopole (recip)=         -33.94580548 eV
  Monopole - monopole (total)=         -45.48056271 eV
  Total lattice energy       =         -38.21220008 eV
  Total lattice energy       =           -3686.8932 kJ/(mole unit cells)

  Number of variables =        1

  Maximum number of calculations  =          1000
  Maximum Hessian update interval =            10
  Maximum step size               =   1.000000000
  Maximum parameter tolerance     =   0.000010000
  Maximum function  tolerance     =   0.000010000
  Maximum gradient  tolerance     =   0.001000000
  Maximum gradient  component     =   0.010000000

  Symmetry constrained optimisation

  Symmetry used for second derivatives

  Cell parameters to be optimised using strains

  Newton-Raphson optimiser to be used

  BFGS hessian update to be used

  Lower half triangular hessian to be used

  Start of bulk optimisation :

  ** Hessian calculated **

  **** Optimisation achieved ****

  Final energy =     -38.21222207 eV
  Final Gnorm  =       0.00000016

  Components of energy :

  Interatomic potentials     =           7.24743141 eV
  Monopole - monopole (real) =         -11.52945423 eV
  Monopole - monopole (recip)=         -33.93019924 eV
  Monopole - monopole (total)=         -45.45965348 eV
  Total lattice energy       =         -38.21222207 eV
  Total lattice energy       =           -3686.8953 kJ/(mole unit cells)

  Final asymmetric unit coordinates :

   No.  Atomic        x           y           z         Radius
        Label       (Frac)      (Frac)      (Frac)       (Angs)
     1  Cl    c     0.000000    0.000000    0.000000    0.000000
     2  O     c     0.500000    0.500000    0.500000    0.000000
     3  Li    c     0.500000    0.500000    0.000000    0.000000
     4  Cl    s     0.000000    0.000000    0.000000    0.000000
     5  O     s     0.500000    0.500000    0.500000    0.000000

  Final Cartesian lattice vectors (Angstroms) :

        3.920675    0.000000    0.000000
        0.000000    3.920675    0.000000
        0.000000    0.000000    3.920675

  Final cell parameters and derivatives :

       a            3.920675 Angstrom     dE/de1(xx)    -0.000000 eV/strain
       b            3.920675 Angstrom     dE/de2(yy)     0.000000 eV/strain
       c            3.920675 Angstrom     dE/de3(zz)     0.000000 eV/strain
       alpha       90.000000 Degrees      dE/de4(yz)     0.000000 eV/strain
       beta        90.000000 Degrees      dE/de5(xz)     0.000000 eV/strain
       gamma       90.000000 Degrees      dE/de6(xy)     0.000000 eV/strain

  Primitive cell volume =            60.267433 Angs**3

  Density of cell =      1.991276 g/cm**3

  Non-primitive cell volume =            60.267433 Angs**3

  Final internal derivatives :

   No.  Atomic          a             b             c           Radius
        Label          (eV)          (eV)          (eV)        (eV/Angs)
      1 Cl    c       0.000000      0.000000      0.000000      0.000000
      2 O     c       0.000000      0.000000      0.000000      0.000000
      3 Li    c       0.000000      0.000000      0.000000      0.000000
      4 Cl    s       0.000000      0.000000      0.000000      0.000000
      5 O     s       0.000000      0.000000      0.000000      0.000000
  Maximum abs         0.000000      0.000000      0.000000      0.000000

  Comparison of initial and final structures :

  Parameter   Initial value   Final value   Difference    Units      Percent
    Volume        60.184349     60.267433     0.083084    Angs**3      0.14
    a              3.918873      3.920675     0.001802    Angstroms    0.05
    b              3.918873      3.920675     0.001802    Angstroms    0.05
    c              3.918873      3.920675     0.001802    Angstroms    0.05
    alpha         90.000000     90.000000     0.000000    Degrees      0.00
    beta          90.000000     90.000000     0.000000    Degrees      0.00
    gamma         90.000000     90.000000     0.000000    Degrees      0.00
      1 x          0.000000      0.000000     0.000000    Fractional   0.00
      1 y          0.000000      0.000000     0.000000    Fractional   0.00
      1 z          0.000000      0.000000     0.000000    Fractional   0.00
      2 x          0.500000      0.500000     0.000000    Fractional   0.00
      2 y          0.500000      0.500000     0.000000    Fractional   0.00
      2 z          0.500000      0.500000     0.000000    Fractional   0.00
      3 x          0.500000      0.500000     0.000000    Fractional   0.00
      3 y          0.500000      0.500000     0.000000    Fractional   0.00
      3 z          0.000000      0.000000     0.000000    Fractional   0.00
      4 x          0.000000      0.000000     0.000000    Fractional   0.00
      4 y          0.000000      0.000000     0.000000    Fractional   0.00
      4 z          0.000000      0.000000     0.000000    Fractional   0.00
      5 x          0.500000      0.500000     0.000000    Fractional   0.00
      5 y          0.500000      0.500000     0.000000    Fractional   0.00
      5 z          0.500000      0.500000     0.000000    Fractional   0.00

  Born effective charge tensors :

  Atom             x           y             z
    1 Cl    x      -0.9489     -0.0000     -0.0000
            y      -0.0000     -0.9489     -0.0000
            z      -0.0000     -0.0000     -0.9489
    2 O     x      -2.4688      0.0000      0.0000
            y       0.0000     -2.4688      0.0000
            z       0.0000      0.0000     -2.4688
    3 Li    x       1.3129      0.0000     -0.0000
            y       0.0000      1.3129      0.0000
            z      -0.0000      0.0000      0.7919

  Elastic Constant Matrix: (Units=GPa)

  Indices      1         2         3         4         5         6
       1     94.3368   44.9178   44.9178    0.0000   -0.0000    0.0000
       2     44.9178   94.3368   44.9178   -0.0000    0.0000   -0.0000
       3     44.9178   44.9178   94.3368    0.0000   -0.0000    0.0000
       4      0.0000   -0.0000    0.0000   44.9178   -0.0000    0.0000
       5     -0.0000    0.0000   -0.0000   -0.0000   44.9178    0.0000
       6      0.0000   -0.0000    0.0000    0.0000    0.0000   44.9178

  Elastic Compliance Matrix: (Units=1/GPa)

[...]
   2027 z         17.643040     17.644108     0.001068    Cartesian    0.01
   2028 x         19.603377     19.607708     0.004331    Cartesian    0.02
   2028 y          7.841351      7.843009     0.001658    Cartesian    0.02
   2028 z          3.920675      3.920986     0.000310    Cartesian    0.01
   2029 x         11.762026     11.764755     0.002729    Cartesian    0.02
   2029 y         -3.920675     -3.921514    -0.000838    Cartesian    0.02
   2029 z         15.682702     15.686405     0.003703    Cartesian    0.02
   2030 x         15.682702     15.685074     0.002372    Cartesian    0.02
   2030 y         -3.920675     -3.921166    -0.000491    Cartesian    0.01
   2030 z        -11.762026    -11.764843    -0.002817    Cartesian    0.02
   2031 x        -13.722364    -13.723284    -0.000919    Cartesian    0.01
   2031 y          5.881013      5.881099     0.000086    Cartesian    0.00
   2031 z         -9.801689     -9.802365    -0.000677    Cartesian    0.01
   2032 x          1.960338      1.960338     0.000000    Cartesian    0.00
   2032 y          9.801689      9.802910     0.001221    Cartesian    0.01
   2032 z         17.643040     17.644875     0.001836    Cartesian    0.01
   2033 x         19.603377     19.607365     0.003988    Cartesian    0.02
   2033 y          7.841351      7.842805     0.001454    Cartesian    0.02
   2033 z         -3.920675     -3.921683    -0.001008    Cartesian    0.03
   2034 x         15.682702     15.686016     0.003314    Cartesian    0.02
   2034 y        -11.762026    -11.764331    -0.002305    Cartesian    0.02
   2034 z          0.000000     -0.000610    -0.000610    Cartesian    0.00
   2035 x          7.841351      7.842781     0.001430    Cartesian    0.02
   2035 y         19.603377     19.608333     0.004955    Cartesian    0.03
   2035 z          3.920675      3.921278     0.000603    Cartesian    0.02
   2036 x          3.920675      3.921313     0.000638    Cartesian    0.02
   2036 y        -15.682702    -15.687699    -0.004997    Cartesian    0.03
   2036 z         -7.841351     -7.844372    -0.003021    Cartesian    0.04
   2037 x         11.762026     11.764838     0.002812    Cartesian    0.02
   2037 y          7.841351      7.843481     0.002130    Cartesian    0.03
   2037 z         15.682702     15.686600     0.003898    Cartesian    0.02
   2038 x         19.603377     19.608242     0.004865    Cartesian    0.02
   2038 y          0.000000      0.000077     0.000077    Cartesian    0.00
   2038 z          7.841351      7.842823     0.001472    Cartesian    0.02
   2039 x         15.682702     15.685533     0.002831    Cartesian    0.02
   2039 y          7.841351      7.842706     0.001355    Cartesian    0.02
   2039 z        -11.762026    -11.764733    -0.002707    Cartesian    0.02
   2040 x         13.722364     13.724232     0.001868    Cartesian    0.01
   2040 y         -9.801689     -9.803146    -0.001457    Cartesian    0.01
   2040 z         -9.801689     -9.803528    -0.001839    Cartesian    0.02
   2041 x          5.881013      5.881037     0.000024    Cartesian    0.00
   2041 y         17.643040     17.644234     0.001195    Cartesian    0.01
   2041 z         -9.801689     -9.802578    -0.000889    Cartesian    0.01
   2042 x          7.841351      7.842944     0.001593    Cartesian    0.02
   2042 y         11.762026     11.765253     0.003227    Cartesian    0.03
   2042 z         15.682702     15.686540     0.003838    Cartesian    0.02
   2043 x         19.603377     19.608481     0.005104    Cartesian    0.03
   2043 y          3.920675      3.921743     0.001067    Cartesian    0.03
   2043 z          7.841351      7.842906     0.001555    Cartesian    0.02
   2044 x          5.881013      5.881310     0.000297    Cartesian    0.01
   2044 y         -5.881013     -5.881849    -0.000836    Cartesian    0.01
   2044 z         17.643040     17.644696     0.001657    Cartesian    0.01
   2045 x          9.801689      9.803524     0.001836    Cartesian    0.02
   2045 y         -9.801689     -9.803679    -0.001991    Cartesian    0.02
   2045 z         13.722364     13.724798     0.002433    Cartesian    0.02
   2046 x          7.841351      7.842561     0.001210    Cartesian    0.02
   2046 y         19.603377     19.607998     0.004621    Cartesian    0.02
   2046 z         -3.920675     -3.921925    -0.001249    Cartesian    0.03
   2047 x         13.722364     13.724564     0.002200    Cartesian    0.02
   2047 y         13.722364     13.724613     0.002249    Cartesian    0.02
   2047 z          9.801689      9.803337     0.001649    Cartesian    0.02
   2048 x          1.960338      1.960338     0.000000    Cartesian    0.00
   2048 y        -17.643040    -17.644682    -0.001642    Cartesian    0.01
   2048 z          1.960338      1.960178    -0.000160    Cartesian   -0.01
   2049 x         -5.881013     -5.881930    -0.000916    Cartesian    0.02
   2049 y         -1.960338     -1.960474    -0.000137    Cartesian    0.01
   2049 z         17.643040     17.644684     0.001644    Cartesian    0.01
   2050 x         13.722364     13.724609     0.002245    Cartesian    0.02
   2050 y         -5.881013     -5.882395    -0.001382    Cartesian    0.02
   2050 z         13.722364     13.724628     0.002264    Cartesian    0.02
   2051 x          7.841351      7.842432     0.001081    Cartesian    0.01
   2051 y         15.682702     15.685812     0.003110    Cartesian    0.02
   2051 z        -11.762026    -11.764723    -0.002697    Cartesian    0.02
   2052 x         13.722364     13.723519     0.001155    Cartesian    0.01
   2052 y        -13.722364    -13.724017    -0.001653    Cartesian    0.01
   2052 z          1.960338      1.960170    -0.000168    Cartesian   -0.01
   2053 x          1.960338      1.960338     0.000000    Cartesian    0.00
   2053 y        -17.643040    -17.644630    -0.001590    Cartesian    0.01
   2053 z         -1.960338     -1.960590    -0.000253    Cartesian    0.01
   2054 x          1.960338      1.960338     0.000000    Cartesian    0.00
   2054 y         -5.881013     -5.881780    -0.000767    Cartesian    0.01
   2054 z        -17.643040    -17.644731    -0.001691    Cartesian    0.01
   2055 x          3.920675      3.921243     0.000568    Cartesian    0.01
   2055 y          0.000000     -0.000002    -0.000002    Cartesian    0.00
   2055 z         19.603377     19.608948     0.005570    Cartesian    0.03
   2056 x          7.841351      7.842741     0.001390    Cartesian    0.02
   2056 y         -7.841351     -7.843104    -0.001753    Cartesian    0.02
   2056 z        -15.682702    -15.686946    -0.004244    Cartesian    0.03
   2057 x         19.603377     19.608018     0.004641    Cartesian    0.02
   2057 y          0.000000     -0.000220    -0.000220    Cartesian    0.00
   2057 z         -7.841351     -7.843444    -0.002093    Cartesian    0.03
   2058 x          9.801689      9.802920     0.001231    Cartesian    0.01
   2058 y          5.881013      5.882128     0.001115    Cartesian    0.02
   2058 z         17.643040     17.645450     0.002410    Cartesian    0.01
   2059 x         13.722364     13.723778     0.001414    Cartesian    0.01
   2059 y        -13.722364    -13.723851    -0.001487    Cartesian    0.01
   2059 z         -1.960338     -1.960591    -0.000254    Cartesian    0.01
   2060 x        -13.722364    -13.723846    -0.001482    Cartesian    0.01
   2060 y         -9.801689     -9.802718    -0.001030    Cartesian    0.01
   2060 z          1.960338      1.960273    -0.000065    Cartesian   -0.00
   2061 x          3.920675      3.921244     0.000569    Cartesian    0.01
   2061 y          3.920675      3.921785     0.001110    Cartesian    0.03
   2061 z         19.603377     19.608715     0.005338    Cartesian    0.03
   2062 x         15.682702     15.686626     0.003924    Cartesian    0.03
   2062 y        -11.762026    -11.765111    -0.003084    Cartesian    0.03
   2062 z          3.920675      3.921330     0.000655    Cartesian    0.02
   2063 x          3.920675      3.921402     0.000727    Cartesian    0.02
   2063 y         19.603377     19.609017     0.005639    Cartesian    0.03
   2063 z          7.841351      7.843143     0.001792    Cartesian    0.02
   2064 x         11.762026     11.764213     0.002186    Cartesian    0.02
   2064 y         -3.920675     -3.921556    -0.000880    Cartesian    0.02
   2064 z        -15.682702    -15.686767    -0.004065    Cartesian    0.03
   2065 x         19.603377     19.607975     0.004597    Cartesian    0.02
   2065 y          3.920675      3.921619     0.000944    Cartesian    0.02
   2065 z         -7.841351     -7.843428    -0.002077    Cartesian    0.03
   2066 x          5.881013      5.881902     0.000889    Cartesian    0.02
   2066 y          9.801689      9.803165     0.001476    Cartesian    0.02
   2066 z         17.643040     17.645529     0.002489    Cartesian    0.01
   2067 x        -13.722364    -13.723889    -0.001525    Cartesian    0.01
   2067 y         -9.801689     -9.802581    -0.000892    Cartesian    0.01
   2067 z         -1.960338     -1.960538    -0.000200    Cartesian    0.01
   2068 x          9.801689      9.802410     0.000721    Cartesian    0.01
   2068 y          1.960338      1.960329    -0.000008    Cartesian   -0.00
   2068 z        -17.643040    -17.644458    -0.001419    Cartesian    0.01
   2069 x         15.682702     15.685682     0.002980    Cartesian    0.02
   2069 y         15.682702     15.686127     0.003425    Cartesian    0.02
   2069 z          0.000000     -0.000667    -0.000667    Cartesian    0.00
   2070 x         13.722364     13.724542     0.002178    Cartesian    0.02
   2070 y          9.801689      9.803516     0.001828    Cartesian    0.02
   2070 z         13.722364     13.724657     0.002293    Cartesian    0.02
   2071 x         13.722364     13.724021     0.001656    Cartesian    0.01
   2071 y         13.722364     13.724047     0.001682    Cartesian    0.01
   2071 z         -9.801689     -9.803408    -0.001719    Cartesian    0.02
   2072 x         15.682702     15.686479     0.003777    Cartesian    0.02
   2072 y        -11.762026    -11.764951    -0.002924    Cartesian    0.02
   2072 z         -3.920675     -3.922258    -0.001582    Cartesian    0.04
   2073 x          9.801689      9.803396     0.001707    Cartesian    0.02
   2073 y         13.722364     13.724598     0.002234    Cartesian    0.02
   2073 z         13.722364     13.724683     0.002319    Cartesian    0.02
   2074 x         21.563715     21.564285     0.000570    Cartesian    0.00
   2074 y          1.960338      1.960285    -0.000053    Cartesian   -0.00
   2074 z          1.960338      1.960133    -0.000205    Cartesian   -0.01
   2075 x          1.960338      1.960338     0.000000    Cartesian    0.00
   2075 y          9.801689      9.802316     0.000627    Cartesian    0.01
   2075 z        -17.643040    -17.644323    -0.001283    Cartesian    0.01
   2076 x          9.801689      9.803747     0.002058    Cartesian    0.02
   2076 y        -13.722364    -13.725113    -0.002749    Cartesian    0.02
   2076 z          9.801689      9.803770     0.002081    Cartesian    0.02
   2077 x         11.762026     11.764158     0.002131    Cartesian    0.02
   2077 y          7.841351      7.843022     0.001671    Cartesian    0.02
   2077 z        -15.682702    -15.687045    -0.004343    Cartesian    0.03
   2078 x         -5.881013     -5.882518    -0.001505    Cartesian    0.03
   2078 y         -9.801689     -9.803249    -0.001560    Cartesian    0.02
   2078 z        -13.722364    -13.724457    -0.002092    Cartesian    0.02
   2079 x         21.563715     21.565071     0.001356    Cartesian    0.01
   2079 y          1.960338      1.960396     0.000059    Cartesian    0.00
   2079 z         -1.960338     -1.960909    -0.000571    Cartesian    0.03
   2080 x          5.881013      5.882021     0.001008    Cartesian    0.02
   2080 y        -17.643040    -17.646056    -0.003016    Cartesian    0.02
   2080 z          1.960338      1.960724     0.000387    Cartesian    0.02
   2081 x          7.841351      7.842757     0.001406    Cartesian    0.02
   2081 y         11.762026     11.764446     0.002419    Cartesian    0.02
   2081 z        -15.682702    -15.686995    -0.004293    Cartesian    0.03
   2082 x          3.920675      3.921281     0.000605    Cartesian    0.02
   2082 y         19.603377     19.608526     0.005148    Cartesian    0.03
   2082 z         -7.841351     -7.843642    -0.002291    Cartesian    0.03
   2083 x         13.722364     13.724074     0.001710    Cartesian    0.01
   2083 y         -5.881013     -5.882229    -0.001216    Cartesian    0.02
   2083 z        -13.722364    -13.724401    -0.002037    Cartesian    0.01
   2084 x          7.841351      7.843747     0.002396    Cartesian    0.03
   2084 y        -15.682702    -15.688937    -0.006235    Cartesian    0.04
   2084 z          7.841351      7.843728     0.002377    Cartesian    0.03
   2085 x          5.881013      5.882003     0.000990    Cartesian    0.02
   2085 y        -17.643040    -17.645986    -0.002946    Cartesian    0.02
   2085 z         -1.960338     -1.961286    -0.000948    Cartesian    0.05
   2086 x        -13.722364    -13.724853    -0.002489    Cartesian    0.02
   2086 y         -5.881013     -5.882454    -0.001440    Cartesian    0.02
   2086 z          9.801689      9.803356     0.001667    Cartesian    0.02
   2087 x         17.643040     17.645249     0.002209    Cartesian    0.01
   2087 y         13.722364     13.723948     0.001584    Cartesian    0.01
   2087 z          1.960338      1.960698     0.000360    Cartesian    0.02
   2088 x          5.881013      5.881844     0.000831    Cartesian    0.01
   2088 y         -5.881013     -5.881959    -0.000946    Cartesian    0.02
   2088 z        -17.643040    -17.645429    -0.002389    Cartesian    0.01
   2089 x         13.722364     13.724047     0.001683    Cartesian    0.01
   2089 y         17.643040     17.645427     0.002387    Cartesian    0.01
   2089 z          1.960338      1.960687     0.000350    Cartesian    0.02
   2090 x          9.801689      9.802763     0.001074    Cartesian    0.01
   2090 y         -1.960338     -1.961003    -0.000665    Cartesian    0.03
   2090 z        -17.643040    -17.645385    -0.002346    Cartesian    0.01
   2091 x         17.643040     17.645303     0.002264    Cartesian    0.01
   2091 y         13.722364     13.724076     0.001712    Cartesian    0.01
   2091 z         -1.960338     -1.961243    -0.000905    Cartesian    0.05
   2092 x         11.762026     11.765487     0.003460    Cartesian    0.03
   2092 y        -15.682702    -15.688661    -0.005959    Cartesian    0.04
   2092 z          0.000000     -0.000492    -0.000492    Cartesian    0.00
   2093 x         15.682702     15.686923     0.004221    Cartesian    0.03
   2093 y         15.682702     15.687214     0.004512    Cartesian    0.03
   2093 z          3.920675      3.921431     0.000756    Cartesian    0.02
   2094 x          1.960338      1.960338     0.000000    Cartesian    0.00
   2094 y         21.563715     21.566969     0.003254    Cartesian    0.02
   2094 z          1.960338      1.960890     0.000552    Cartesian    0.03
   2095 x         13.722364     13.724103     0.001738    Cartesian    0.01
   2095 y         17.643040     17.645457     0.002417    Cartesian    0.01
   2095 z         -1.960338     -1.961334    -0.000996    Cartesian    0.05
   2096 x         19.603377     19.609058     0.005681    Cartesian    0.03
   2096 y         -3.920675     -3.922049    -0.001374    Cartesian    0.04
   2096 z          7.841351      7.843228     0.001877    Cartesian    0.02

  Time to end of optimisation  =      404.8884 seconds

  Timing analysis for GULP :

  Task / Subroutine                                          Time (Seconds)
  Calculation of reciprocal space energy and derivatives          0.0005
  Calculation of reciprocal space energy using symmetry           0.0006
  Calculation of real space energy and derivatives                0.0031
  Calculation of real space energy using symmetry                 0.0075
  Calculation for region 1 energy and derivatives (2-b)         161.8581
  Calculation for region 2a energy                               52.1087
  Calculation for region 2b energy                                0.0031
  Calculation and manipulation of Hessian matrix                  1.8880
  Calculation of matrix inversion                               186.5013
  Symmetry generation of equivalent positions                     0.0056

  Dump file written as Li3OCl.grs

  Job Finished at 15:07.02 23rd October    2020