  Job Started  at 12:24.52  1st December   2020

  Number of CPUs =     1

  Total number of configurations input =      1

*  Input for Configuration =   1                                               *

  Formula = ClLi

  Number of irreducible atoms/shells =       3

  Total number atoms/shells =       3

  Dimensionality = 3               :  Bulk

  Symmetry :

  Crystal family                   :  Cubic
  Crystal class  (Groth - 1921)    :  Cubic Hexakisoctahedral

  Space group (centrosymmetric)    :  F M 3 M

  Patterson group                  :  F m -3 m

  Cartesian lattice vectors (Angstroms) :

        0.000000    1.280000    1.280000
        1.280000    0.000000    1.280000
        1.280000    1.280000    0.000000

  Primitive cell parameters :            Full cell parameters :

  a =   1.8102    alpha =  60.0000       a =   2.5600    alpha =  90.0000
  b =   1.8102    beta  =  60.0000       b =   2.5600    beta  =  90.0000
  c =   1.8102    gamma =  60.0000       c =   2.5600    gamma =  90.0000

  Initial volumes (Angstroms**3):

  Primitive cell =           4.194304    Full cell =          16.777216

  Temperature of configuration =   0.00     K

  Pressure of configuration =         0.000 GPa

  Fractional coordinates of asymmetric unit :

   No.  Atomic       x           y          z         Charge      Occupancy
        Label      (Frac)      (Frac)     (Frac)        (e)         (Frac)
      1 Cl    c    0.000000    0.000000    0.000000     1.48500    1.000000
      2 Li    c    0.500000    0.000000    0.000000     1.00000    1.000000
      3 Cl    s    0.000000    0.000000    0.000000    -2.48500    1.000000

  Constraints :

  Constraint no.      Unconstrained     Constrained    Coefficient    Offset
                         Variable         Variable
           1              Strain 1        Strain 2       1.00000      0.0000
           2              Strain 1        Strain 3       1.00000      0.0000

*  General input information                                                   *

  Species output for all configurations :

  Species    Type    Atomic    Atomic    Charge       Radii (Angs)     Library
                     Number     Mass       (e)     Cova   Ionic  VDW   Symbol
    Li       Core        3       6.94   1.000000   0.680  0.000  1.800
    O        Core        8      16.00   0.183000   0.730  0.000  0.000
    O        Shell       8       0.00  -2.183000   0.730  0.000  0.000
    Cl       Core       17      35.45   1.485000   0.990  0.000  1.650
    Cl       Shell      17       0.00  -2.485000   0.990  0.000  1.650
    Mg       Core       12      24.31   0.415000   1.100  0.000  0.000
    Mg       Shell      12       0.00   1.585000   1.100  0.000  0.000
    Ca       Core       20      40.08  -1.135000   0.990  0.000  0.000
    Ca       Shell      20       0.00   3.135000   0.990  0.000  0.000
    Sr       Core       38      87.62  -1.251000   1.120  0.000  0.000
    Sr       Shell      38       0.00   3.251000   1.120  0.000  0.000
    Ba       Core       56     137.33  -7.203000   1.340  0.000  0.000
    Ba       Shell      56       0.00   9.203000   1.340  0.000  0.000

  Lattice summation method               =    Ewald          (3-D)
                                         =    Parry          (2-D)
                                         =    Saunders et al (1-D)
  Accuracy factor for lattice sums       =   12.000

  Analytic derivatives to be used

  Time limit = Infinity

  Maximum range for interatomic potentials =    100000.000000 Angstroms

  General interatomic potentials :

Atom  Types   Potential      Parameter       Value         Units   Cutoffs(Ang)
  1     2                                                            Min /  Max
O    c O    s Spring (c-s)  Spring k 2       593.71600    eV*Ang^-2 0.000  0.800
                            Spring k 4       0.0000000    eV*Ang^-4
Cl   c Cl   s Spring (c-s)  Spring k 2       29.380000    eV*Ang^-2 0.000  0.800
                            Spring k 4       0.0000000    eV*Ang^-4
Mg   c Mg   s Spring (c-s)  Spring k 2       361.60000    eV*Ang^-2 0.000  0.800
                            Spring k 4       0.0000000    eV*Ang^-4
Ca   c Ca   s Spring (c-s)  Spring k 2       110.20000    eV*Ang^-2 0.000  0.800
                            Spring k 4       0.0000000    eV*Ang^-4
Sr   c Sr   s Spring (c-s)  Spring k 2       71.700000    eV*Ang^-2 0.000  0.800
                            Spring k 4       0.0000000    eV*Ang^-4
Ba   c Ba   s Spring (c-s)  Spring k 2       495.20000    eV*Ang^-2 0.000  0.800
                            Spring k 4       0.0000000    eV*Ang^-4
Li   c Li   c Buckingham    Buckingham A     360.53000    eV        0.000 12.000
                            Buckingham rho  0.16100000    Ang
                            Buckingham C     0.0000000    eV*Ang^6
Li   c O    s Buckingham    Buckingham A     292.30000    eV        0.000 12.000
                            Buckingham rho  0.34700000    Ang
                            Buckingham C     0.0000000    eV*Ang^6
Li   c Cl   s Buckingham    Buckingham A     421.04000    eV        0.000 12.000
                            Buckingham rho  0.33400000    Ang
                            Buckingham C     0.0000000    eV*Ang^6
O    s O    s Buckingham    Buckingham A     22764.300    eV        0.000 12.000
                            Buckingham rho  0.14900000    Ang
                            Buckingham C     13.190000    eV*Ang^6
O    s Cl   s Buckingham    Buckingham A     8286.9100    eV        0.000 12.000
                            Buckingham rho  0.25900000    Ang
                            Buckingham C     62.200000    eV*Ang^6
Cl   s Cl   s Buckingham    Buckingham A     1227.2000    eV        0.000 12.000
                            Buckingham rho  0.32100000    Ang
                            Buckingham C     14.530000    eV*Ang^6
O    s Mg   s Buckingham    Buckingham A     1428.5000    eV        0.000 12.000
                            Buckingham rho  0.29450000    Ang
                            Buckingham C     0.0000000    eV*Ang^6
Mg   s Cl   s Buckingham    Buckingham A     4914.5400    eV        0.000 12.000
                            Buckingham rho  0.25700000    Ang
                            Buckingham C     0.0000000    eV*Ang^6
O    s Ca   s Buckingham    Buckingham A     1090.4000    eV        0.000 12.000
                            Buckingham rho  0.34370000    Ang
                            Buckingham C     0.0000000    eV*Ang^6
Cl   s Ca   s Buckingham    Buckingham A     2302.0000    eV        0.000 12.000
                            Buckingham rho  0.34020000    Ang
                            Buckingham C     0.0000000    eV*Ang^6
O    s Sr   s Buckingham    Buckingham A     959.10000    eV        0.000 12.000
                            Buckingham rho  0.37210000    Ang
                            Buckingham C     0.0000000    eV*Ang^6
Cl   s Sr   s Buckingham    Buckingham A     2191.0900    eV        0.000 12.000
                            Buckingham rho  0.34570000    Ang
                            Buckingham C     0.0000000    eV*Ang^6
O    s Ba   s Buckingham    Buckingham A     905.70000    eV        0.000 12.000
                            Buckingham rho  0.39760000    Ang
                            Buckingham C     0.0000000    eV*Ang^6
Cl   s Ba   s Buckingham    Buckingham A     2704.5500    eV        0.000 12.000
                            Buckingham rho  0.35280000    Ang
                            Buckingham C     0.0000000    eV*Ang^6

*  Output for configuration   1                                                *

  Components of energy :

  Interatomic potentials     =          86.71659217 eV
  Monopole - monopole (real) =          -1.78614599 eV
  Monopole - monopole (recip)=         -17.87362584 eV
  Monopole - monopole (total)=         -19.65977184 eV
  Total lattice energy :
    Primitive unit cell      =          67.05682033 eV
    Non-primitive unit cell  =         268.22728132 eV
  Total lattice energy (in kJmol-1):
    Primitive unit cell      =            6469.9581 kJ/(mole unit cells)
    Non-primitive unit cell  =           25879.8324 kJ/(mole unit cells)

  Number of variables =        1

  Maximum number of calculations  =          1000
  Maximum Hessian update interval =            10
  Maximum step size               =   1.000000000
  Maximum parameter tolerance     =   0.000010000
  Maximum function  tolerance     =   0.000010000
  Maximum gradient  tolerance     =   0.001000000
  Maximum gradient  component     =   0.010000000

  Symmetry constrained optimisation

  Symmetry used for second derivatives

  Cell parameters to be optimised using strains

  Newton-Raphson optimiser to be used

  BFGS hessian update to be used

  Lower half triangular hessian to be used

  Start of bulk optimisation :

  ** Hessian calculated **
  ** Hessian calculated **

  **** Optimisation achieved ****

  Final energy =      -8.59126749 eV
  Final Gnorm  =       0.00000424

  Components of energy :

  Interatomic potentials     =           1.21952599 eV
  Monopole - monopole (real) =          -0.89133839 eV
  Monopole - monopole (recip)=          -8.91945508 eV
  Monopole - monopole (total)=          -9.81079348 eV
  Total lattice energy :
    Primitive unit cell      =          -8.59126749 eV
    Non-primitive unit cell  =         -34.36506994 eV
  Total lattice energy (in kJmol-1):
    Primitive unit cell      =            -828.9260 kJ/(mole unit cells)
    Non-primitive unit cell  =           -3315.7039 kJ/(mole unit cells)

  Final asymmetric unit coordinates :

   No.  Atomic        x           y           z         Radius
        Label       (Frac)      (Frac)      (Frac)       (Angs)
     1  Cl    c     0.000000    0.000000    0.000000    0.000000
     2  Li    c     0.500000    0.000000    0.000000    0.000000
     3  Cl    s     0.000000    0.000000    0.000000    0.000000

  Final Cartesian lattice vectors (Angstroms) :

        0.000000    2.564982    2.564982
        2.564982    0.000000    2.564982
        2.564982    2.564982    0.000000

  Final cell parameters and derivatives :

       a            3.627432 Angstrom     dE/de1(xx)     0.000004 eV/strain
       b            3.627432 Angstrom     dE/de2(yy)     0.000000 eV/strain
       c            3.627432 Angstrom     dE/de3(zz)     0.000000 eV/strain
       alpha       60.000000 Degrees      dE/de4(yz)     0.000000 eV/strain
       beta        60.000000 Degrees      dE/de5(xz)     0.000000 eV/strain
       gamma       60.000000 Degrees      dE/de6(xy)     0.000000 eV/strain

  Primitive cell volume =            33.750711 Angs**3

  Density of cell =      2.085626 g/cm**3

  Non-primitive lattice parameters :

  a    =     5.129964  b   =     5.129964  c    =     5.129964
  alpha=    90.000000  beta=    90.000000  gamma=    90.000000

  Non-primitive cell volume =           135.002843 Angs**3

  Final internal derivatives :

   No.  Atomic          a             b             c           Radius
        Label          (eV)          (eV)          (eV)        (eV/Angs)
      1 Cl    c       0.000000      0.000000      0.000000      0.000000
      2 Li    c       0.000000      0.000000      0.000000      0.000000
      3 Cl    s       0.000000      0.000000      0.000000      0.000000
  Maximum abs         0.000000      0.000000      0.000000      0.000000

  Comparison of initial and final structures :

  Parameter   Initial value   Final value   Difference    Units      Percent
    Volume        16.777216    135.002843   118.225627    Angs**3    704.68
    a              2.560000      5.129964     2.569964    Angstroms  100.39
    b              2.560000      5.129964     2.569964    Angstroms  100.39
    c              2.560000      5.129964     2.569964    Angstroms  100.39
    alpha         90.000000     90.000000     0.000000    Degrees      0.00
    beta          90.000000     90.000000     0.000000    Degrees      0.00
    gamma         90.000000     90.000000     0.000000    Degrees      0.00
      1 x          0.000000      0.000000     0.000000    Fractional   0.00
      1 y          0.000000      0.000000     0.000000    Fractional   0.00
      1 z          0.000000      0.000000     0.000000    Fractional   0.00
      2 x          0.500000      0.500000     0.000000    Fractional   0.00
      2 y          0.000000      0.000000     0.000000    Fractional   0.00
      2 z          0.000000      0.000000     0.000000    Fractional   0.00
      3 x          0.000000      0.000000     0.000000    Fractional   0.00
      3 y          0.000000      0.000000     0.000000    Fractional   0.00
      3 z          0.000000      0.000000     0.000000    Fractional   0.00

  Born effective charge tensors :

  Atom             x           y             z
    1 Cl    x      -1.2190     -0.0000      0.0000
            y      -0.0000     -1.2190      0.0000
            z       0.0000      0.0000     -1.2190
    2 Li    x       1.2190      0.0000     -0.0000
            y       0.0000      1.2190     -0.0000
            z      -0.0000     -0.0000      1.2190

  Elastic Constant Matrix: (Units=GPa)

  Indices      1         2         3         4         5         6
       1     48.5598   23.3335   23.3335    0.0000   -0.0000   -0.0000
       2     23.3335   48.5598   23.3335    0.0000    0.0000   -0.0000
       3     23.3335   23.3335   48.5598    0.0000   -0.0000   -0.0000
       4      0.0000    0.0000    0.0000   23.3335   -0.0000    0.0000
       5     -0.0000    0.0000   -0.0000   -0.0000   23.3335    0.0000
       6     -0.0000   -0.0000   -0.0000    0.0000    0.0000   23.3335

  Elastic Compliance Matrix: (Units=1/GPa)

  Indices      1         2         3         4         5         6
       1    0.029928 -0.009713 -0.009713  0.000000  0.000000  0.000000
       2   -0.009713  0.029928 -0.009713 -0.000000 -0.000000  0.000000
       3   -0.009713 -0.009713  0.029928 -0.000000  0.000000 -0.000000
       4    0.000000 -0.000000 -0.000000  0.042857  0.000000 -0.000000
       5    0.000000 -0.000000  0.000000  0.000000  0.042857 -0.000000
       6    0.000000  0.000000 -0.000000 -0.000000 -0.000000  0.042857

  Mechanical properties :

  Convention :                    Reuss         Voigt         Hill
  Bulk  Modulus (GPa)     =      31.74227      31.74227      31.74227
  Shear Modulus (GPa)     =      17.41338      19.04537      18.22937
  Velocity S-wave (km/s)  =       2.88950       3.02187       2.95643
  Velocity P-wave (km/s)  =       5.13341       5.23404       5.18397
  Compressibility (1/GPa) =    0.03150373
  Stress axis :                     x             y             z
  Youngs Moduli (GPa)     =      33.41359      33.41359      33.41359
  Poissons Ratio (x)      =                     0.32456       0.32456
  Poissons Ratio (y)      =       0.32456                     0.32456
  Poissons Ratio (z)      =       0.32456       0.32456

  Piezoelectric Strain Matrix: (Units=C/m**2)

  Indices      1         2         3         4         5         6
       x     0.00000  -0.00000  -0.00000  -0.00000  -0.00000  -0.00000
       y    -0.00000   0.00000  -0.00000  -0.00000  -0.00000  -0.00000
       z    -0.00000  -0.00000  -0.00000  -0.00000  -0.00000  -0.00000

  Piezoelectric Stress Matrix: (Units=10**-11 C/N)

  Indices      1         2         3         4         5         6
       x     0.00000  -0.00000  -0.00000  -0.00000  -0.00000  -0.00000
       y    -0.00000   0.00000  -0.00000  -0.00000  -0.00000  -0.00000
       z    -0.00000  -0.00000   0.00000  -0.00000  -0.00000  -0.00000

  Static dielectric constant tensor :

              x         y         z
       x    14.92444  -0.00000   0.00000
       y    -0.00000  14.92444   0.00000
       z     0.00000   0.00000  14.92444

  High frequency dielectric constant tensor :

              x         y         z
       x     2.58115   0.00000  -0.00000
       y     0.00000   2.58115  -0.00000
       z    -0.00000  -0.00000   2.58115

  Static refractive indices :

    1 =    3.86322      2 =    3.86322      3 =    3.86322

  High frequency refractive indices :

    1 =    1.60660      2 =    1.60660      3 =    1.60660

  Time to end of optimisation =       0.0355 seconds

*  Defect calculation for configuration   1 :                                  *

  **** No defects for configuration number    1 ****

  Timing analysis for GULP :

  Task / Subroutine                                          Time (Seconds)
  Calculation of reciprocal space energy and derivatives          0.0003
  Calculation of reciprocal space energy using symmetry           0.0005
  Calculation of real space energy and derivatives                0.0012
  Calculation of real space energy using symmetry                 0.0228
  Symmetry generation of equivalent positions                     0.0028

  Dump file written as Li3OCl.grs

  Job Finished at 12:24.52  1st December   2020