  Job Started  at 12:29.04  1st December   2020

  Number of CPUs =     1

  Total number of configurations input =      1

*  Input for Configuration =   1                                               *

  Formula = ClOLi3

  Number of irreducible atoms/shells =       5

  Total number atoms/shells =       7

  Dimensionality = 3               :  Bulk

  Symmetry :

  Crystal family                   :  Cubic
  Crystal class  (Groth - 1921)    :  Cubic Hexakisoctahedral

  Space group (centrosymmetric)    :  P M 3 M

  Patterson group                  :  P m -3 m

  Cartesian lattice vectors (Angstroms) :

        3.918873    0.000000    0.000000
        0.000000    3.918873    0.000000
        0.000000    0.000000    3.918873

  Cell parameters (Angstroms/Degrees):

  a =       3.9189    alpha =  90.0000
  b =       3.9189    beta  =  90.0000
  c =       3.9189    gamma =  90.0000

  Initial cell volume =          60.184349 Angs**3

  Temperature of configuration =   0.00     K

  Pressure of configuration =         0.000 GPa

  Fractional coordinates of asymmetric unit :

   No.  Atomic       x           y          z         Charge      Occupancy
        Label      (Frac)      (Frac)     (Frac)        (e)         (Frac)
      1 Cl    c    0.000000    0.000000    0.000000     1.48500    1.000000
      2 O     c    0.500000    0.500000    0.500000     0.18300    1.000000
      3 Li    c    0.500000    0.500000    0.000000     1.00000    1.000000
      4 Cl    s    0.000000    0.000000    0.000000    -2.48500    1.000000
      5 O     s    0.500000    0.500000    0.500000    -2.18300    1.000000

  Constraints :

  Constraint no.      Unconstrained     Constrained    Coefficient    Offset
                         Variable         Variable
           1              Strain 1        Strain 2       1.00000      0.0000
           2              Strain 1        Strain 3       1.00000      0.0000

*  General input information                                                   *

  Species output for all configurations :

  Species    Type    Atomic    Atomic    Charge       Radii (Angs)     Library
                     Number     Mass       (e)     Cova   Ionic  VDW   Symbol
    Li       Core        3       6.94   1.000000   0.680  0.000  1.800
    O        Core        8      16.00   0.183000   0.730  0.000  1.360
    O        Shell       8       0.00  -2.183000   0.730  0.000  1.360
    Cl       Core       17      35.45   1.485000   0.990  0.000  1.650
    Cl       Shell      17       0.00  -2.485000   0.990  0.000  1.650
    Mg       Core       12      24.31   0.415000   1.100  0.000  0.000
    Mg       Shell      12       0.00   1.585000   1.100  0.000  0.000
    Ca       Core       20      40.08  -1.135000   0.990  0.000  0.000
    Ca       Shell      20       0.00   3.135000   0.990  0.000  0.000
    Sr       Core       38      87.62  -1.251000   1.120  0.000  0.000
    Sr       Shell      38       0.00   3.251000   1.120  0.000  0.000
    Ba       Core       56     137.33  -7.203000   1.340  0.000  0.000
    Ba       Shell      56       0.00   9.203000   1.340  0.000  0.000

  Lattice summation method               =    Ewald          (3-D)
                                         =    Parry          (2-D)
                                         =    Saunders et al (1-D)
  Accuracy factor for lattice sums       =   12.000

  Analytic derivatives to be used

  Time limit = Infinity

  Maximum range for interatomic potentials =    100000.000000 Angstroms

  General interatomic potentials :

Atom  Types   Potential      Parameter       Value         Units   Cutoffs(Ang)
  1     2                                                            Min /  Max
O    c O    s Spring (c-s)  Spring k 2       593.71600    eV*Ang^-2 0.000  0.800
                            Spring k 4       0.0000000    eV*Ang^-4
Cl   c Cl   s Spring (c-s)  Spring k 2       29.380000    eV*Ang^-2 0.000  0.800
                            Spring k 4       0.0000000    eV*Ang^-4
Mg   c Mg   s Spring (c-s)  Spring k 2       361.60000    eV*Ang^-2 0.000  0.800
                            Spring k 4       0.0000000    eV*Ang^-4
Ca   c Ca   s Spring (c-s)  Spring k 2       110.20000    eV*Ang^-2 0.000  0.800
                            Spring k 4       0.0000000    eV*Ang^-4
Sr   c Sr   s Spring (c-s)  Spring k 2       71.700000    eV*Ang^-2 0.000  0.800
                            Spring k 4       0.0000000    eV*Ang^-4
Ba   c Ba   s Spring (c-s)  Spring k 2       495.20000    eV*Ang^-2 0.000  0.800
                            Spring k 4       0.0000000    eV*Ang^-4
Li   c Li   c Buckingham    Buckingham A     360.53000    eV        0.000 12.000
                            Buckingham rho  0.16100000    Ang
                            Buckingham C     0.0000000    eV*Ang^6
Li   c O    s Buckingham    Buckingham A     292.30000    eV        0.000 12.000
                            Buckingham rho  0.34700000    Ang
                            Buckingham C     0.0000000    eV*Ang^6
Li   c Cl   s Buckingham    Buckingham A     421.04000    eV        0.000 12.000
                            Buckingham rho  0.33400000    Ang
                            Buckingham C     0.0000000    eV*Ang^6
O    s O    s Buckingham    Buckingham A     22764.300    eV        0.000 12.000
                            Buckingham rho  0.14900000    Ang
                            Buckingham C     13.190000    eV*Ang^6
O    s Cl   s Buckingham    Buckingham A     8286.9100    eV        0.000 12.000
                            Buckingham rho  0.25900000    Ang
                            Buckingham C     62.200000    eV*Ang^6
Cl   s Cl   s Buckingham    Buckingham A     1227.2000    eV        0.000 12.000
                            Buckingham rho  0.32100000    Ang
                            Buckingham C     14.530000    eV*Ang^6
O    s Mg   s Buckingham    Buckingham A     1428.5000    eV        0.000 12.000
                            Buckingham rho  0.29450000    Ang
                            Buckingham C     0.0000000    eV*Ang^6
Mg   s Cl   s Buckingham    Buckingham A     4914.5400    eV        0.000 12.000
                            Buckingham rho  0.25700000    Ang
                            Buckingham C     0.0000000    eV*Ang^6
O    s Ca   s Buckingham    Buckingham A     1090.4000    eV        0.000 12.000
                            Buckingham rho  0.34370000    Ang
                            Buckingham C     0.0000000    eV*Ang^6
Cl   s Ca   s Buckingham    Buckingham A     2302.0000    eV        0.000 12.000
                            Buckingham rho  0.34020000    Ang
                            Buckingham C     0.0000000    eV*Ang^6
O    s Sr   s Buckingham    Buckingham A     959.10000    eV        0.000 12.000
                            Buckingham rho  0.37210000    Ang
                            Buckingham C     0.0000000    eV*Ang^6
Cl   s Sr   s Buckingham    Buckingham A     2191.0900    eV        0.000 12.000
                            Buckingham rho  0.34570000    Ang
                            Buckingham C     0.0000000    eV*Ang^6
O    s Ba   s Buckingham    Buckingham A     905.70000    eV        0.000 12.000
                            Buckingham rho  0.39760000    Ang
                            Buckingham C     0.0000000    eV*Ang^6
Cl   s Ba   s Buckingham    Buckingham A     2704.5500    eV        0.000 12.000
                            Buckingham rho  0.35280000    Ang
                            Buckingham C     0.0000000    eV*Ang^6

*  Output for configuration   1                                                *

  Components of energy :

  Interatomic potentials     =           7.24802695 eV
  Monopole - monopole (real) =         -11.53475722 eV
  Monopole - monopole (recip)=         -33.94580548 eV
  Monopole - monopole (total)=         -45.48056271 eV
  Total lattice energy       =         -38.23253575 eV
  Total lattice energy       =           -3688.8553 kJ/(mole unit cells)

  Number of variables =        1

  Maximum number of calculations  =          1000
  Maximum Hessian update interval =            10
  Maximum step size               =   1.000000000
  Maximum parameter tolerance     =   0.000010000
  Maximum function  tolerance     =   0.000010000
  Maximum gradient  tolerance     =   0.001000000
  Maximum gradient  component     =   0.010000000

  Symmetry constrained optimisation

  Symmetry used for second derivatives

  Cell parameters to be optimised using strains

  Newton-Raphson optimiser to be used

  BFGS hessian update to be used

  Lower half triangular hessian to be used

  Start of bulk optimisation :

  **** Optimisation achieved ****

  Final energy =     -38.23253575 eV
  Final Gnorm  =       0.00001878

  Components of energy :

  Interatomic potentials     =           7.24802695 eV
  Monopole - monopole (real) =         -11.53475722 eV
  Monopole - monopole (recip)=         -33.94580548 eV
  Monopole - monopole (total)=         -45.48056271 eV
  Total lattice energy       =         -38.23253575 eV
  Total lattice energy       =           -3688.8553 kJ/(mole unit cells)

  Final asymmetric unit coordinates :

   No.  Atomic        x           y           z         Radius
        Label       (Frac)      (Frac)      (Frac)       (Angs)
     1  Cl    c     0.000000    0.000000    0.000000    0.000000
     2  O     c     0.500000    0.500000    0.500000    0.000000
     3  Li    c     0.500000    0.500000    0.000000    0.000000
     4  Cl    s     0.000000    0.000000    0.000000    0.000000
     5  O     s     0.500000    0.500000    0.500000    0.000000

  Final Cartesian lattice vectors (Angstroms) :

        3.918873    0.000000    0.000000
        0.000000    3.918873    0.000000
        0.000000    0.000000    3.918873

  Final cell parameters and derivatives :

       a            3.918873 Angstrom     dE/de1(xx)    -0.000019 eV/strain
       b            3.918873 Angstrom     dE/de2(yy)     0.000000 eV/strain
       c            3.918873 Angstrom     dE/de3(zz)     0.000000 eV/strain
       alpha       90.000000 Degrees      dE/de4(yz)     0.000000 eV/strain
       beta        90.000000 Degrees      dE/de5(xz)     0.000000 eV/strain
       gamma       90.000000 Degrees      dE/de6(xy)     0.000000 eV/strain

  Primitive cell volume =            60.184349 Angs**3

  Density of cell =      1.994024 g/cm**3

  Non-primitive cell volume =            60.184349 Angs**3

  Final internal derivatives :

   No.  Atomic          a             b             c           Radius
        Label          (eV)          (eV)          (eV)        (eV/Angs)
      1 Cl    c       0.000000      0.000000      0.000000      0.000000
      2 O     c       0.000000      0.000000      0.000000      0.000000
      3 Li    c       0.000000      0.000000      0.000000      0.000000
      4 Cl    s       0.000000      0.000000      0.000000      0.000000
      5 O     s       0.000000      0.000000      0.000000      0.000000
  Maximum abs         0.000000      0.000000      0.000000      0.000000

  Comparison of initial and final structures :

[...]
     11 z          7.837746      7.846398     0.008652    Cartesian    0.11
     12 x          5.878309      5.888423     0.010113    Cartesian    0.17
     12 y          5.878309      5.888423     0.010113    Cartesian    0.17
     12 z          0.000000      0.000000     0.000000    Cartesian    0.00
     13 x         -1.959436     -1.957055     0.002382    Cartesian   -0.12
     13 y          5.878309      5.873918    -0.004391    Cartesian   -0.07
     13 z          5.878309      5.873918    -0.004391    Cartesian   -0.07
     14 x          0.000000      0.000000     0.000000    Cartesian    0.00
     14 y          3.918873      3.915193    -0.003680    Cartesian   -0.09
     14 z          7.837746      7.829408    -0.008338    Cartesian   -0.11
     15 x          5.878309      5.883884     0.005575    Cartesian    0.09
     15 y          5.878309      5.883884     0.005575    Cartesian    0.09
     15 z          3.918873      3.918854    -0.000019    Cartesian   -0.00
     16 x          3.918873      3.915000    -0.003873    Cartesian   -0.10
     16 y          3.918873      3.915000    -0.003873    Cartesian   -0.10
     16 z          7.837746      7.829087    -0.008659    Cartesian   -0.11
     17 x         -1.959436     -1.960235    -0.000798    Cartesian    0.04
     17 y          5.878309      5.881913     0.003604    Cartesian    0.06
     17 z          7.837746      7.842519     0.004773    Cartesian    0.06
     18 x         -1.959436     -1.960790    -0.001353    Cartesian    0.07
     18 y          9.797182      9.805597     0.008414    Cartesian    0.09
     18 z          0.000000      0.000000     0.000000    Cartesian    0.00
     19 x         -1.959436     -1.959160     0.000277    Cartesian   -0.01
     19 y         -1.959436     -1.959160     0.000277    Cartesian   -0.01
     19 z          9.797182      9.797077    -0.000106    Cartesian   -0.00
     20 x          5.878309      5.872328    -0.005982    Cartesian   -0.10
     20 y          5.878309      5.872328    -0.005982    Cartesian   -0.10
     20 z          5.878309      5.872328    -0.005982    Cartesian   -0.10
     21 x          3.918873      3.920550     0.001677    Cartesian    0.04
     21 y         -1.959436     -1.960431    -0.000995    Cartesian    0.05
     21 z          9.797182      9.805507     0.008324    Cartesian    0.08
     22 x          0.000000      0.000000     0.000000    Cartesian    0.00
     22 y          7.837746      7.832826    -0.004920    Cartesian   -0.06
     22 z          7.837746      7.832826    -0.004920    Cartesian   -0.06
     23 x          5.878309      5.879336     0.001027    Cartesian    0.02
     23 y          5.878309      5.879336     0.001027    Cartesian    0.02
     23 z          7.837746      7.839240     0.001494    Cartesian    0.02
     24 x          5.878309      5.880812     0.002503    Cartesian    0.04
     24 y          9.797182      9.803554     0.006372    Cartesian    0.07
     24 z          0.000000      0.000000     0.000000    Cartesian    0.00
     25 x         -1.959436     -1.959009     0.000427    Cartesian   -0.02
     25 y          5.878309      5.877391    -0.000919    Cartesian   -0.02
     25 z          9.797182      9.796273    -0.000910    Cartesian   -0.01
     26 x          0.000000      0.000000     0.000000    Cartesian    0.00
     26 y          0.000000      0.000000     0.000000    Cartesian    0.00
     26 z         11.756619     11.752914    -0.003705    Cartesian   -0.03
     27 x          3.918873      3.915863    -0.003010    Cartesian   -0.08
     27 y          7.837746      7.832020    -0.005726    Cartesian   -0.07
     27 z          7.837746      7.832020    -0.005726    Cartesian   -0.07
     28 x          5.878309      5.881140     0.002830    Cartesian    0.05
     28 y          9.797182      9.802031     0.004848    Cartesian    0.05
     28 z          3.918873      3.919689     0.000816    Cartesian    0.02
     29 x         11.756619     11.761911     0.005292    Cartesian    0.05
     29 y         -1.959436     -1.959533    -0.000097    Cartesian    0.00
     29 z         -1.959436     -1.959533    -0.000097    Cartesian    0.00
     30 x          0.000000      0.000000     0.000000    Cartesian    0.00
     30 y          3.918873      3.917413    -0.001460    Cartesian   -0.04
     30 z         11.756619     11.753279    -0.003340    Cartesian   -0.03
     31 x          7.837746      7.840125     0.002379    Cartesian    0.03
     31 y         -1.959436     -1.959348     0.000089    Cartesian   -0.00
     31 z          9.797182      9.801997     0.004814    Cartesian    0.05
     32 x          5.878309      5.877294    -0.001015    Cartesian   -0.02
     32 y          5.878309      5.877294    -0.001015    Cartesian   -0.02
     32 z          9.797182      9.795514    -0.001669    Cartesian   -0.02
     33 x          3.918873      3.918008    -0.000865    Cartesian   -0.02
     33 y         11.756619     11.753085    -0.003534    Cartesian   -0.03
     33 z          3.918873      3.918008    -0.000865    Cartesian   -0.02
     34 x         -1.959436     -1.960815    -0.001379    Cartesian    0.07
     34 y          5.878309      5.881659     0.003350    Cartesian    0.06
     34 z         11.756619     11.760564     0.003945    Cartesian    0.03
     35 x          7.837746      7.832929    -0.004817    Cartesian   -0.06
     35 y          7.837746      7.832929    -0.004817    Cartesian   -0.06
     35 z          7.837746      7.832929    -0.004817    Cartesian   -0.06
     36 x         -1.959436     -1.959351     0.000085    Cartesian   -0.00
     36 y         13.716055     13.723553     0.007497    Cartesian    0.05
     36 z          0.000000      0.000000     0.000000    Cartesian    0.00
     37 x          9.797182      9.801202     0.004019    Cartesian    0.04
     37 y          9.797182      9.801202     0.004019    Cartesian    0.04
     37 z          0.000000      0.000000     0.000000    Cartesian    0.00
     38 x          7.837746      7.838847     0.001101    Cartesian    0.01
     38 y          9.797182      9.798369     0.001186    Cartesian    0.01
     38 z          5.878309      5.880426     0.002116    Cartesian    0.04
     39 x         -1.959436     -1.959228     0.000208    Cartesian   -0.01
     39 y          9.797182      9.797016    -0.000167    Cartesian   -0.00
     39 z          9.797182      9.797016    -0.000167    Cartesian   -0.00
     40 x         -1.959436     -1.959992    -0.000555    Cartesian    0.03
     40 y         13.716055     13.716679     0.000624    Cartesian    0.00
     40 z         -1.959436     -1.959992    -0.000555    Cartesian    0.03
     41 x          0.000000      0.000000     0.000000    Cartesian    0.00
     41 y          7.837746      7.836295    -0.001451    Cartesian   -0.02
     41 z         11.756619     11.753418    -0.003201    Cartesian   -0.03
     42 x         -1.959436     -1.959970    -0.000533    Cartesian    0.03
     42 y         13.716055     13.719589     0.003534    Cartesian    0.03
     42 z          3.918873      3.919599     0.000726    Cartesian    0.02
     43 x          9.797182      9.799247     0.002065    Cartesian    0.02
     43 y          9.797182      9.799247     0.002065    Cartesian    0.02
     43 z          3.918873      3.919074     0.000201    Cartesian    0.01
     44 x         11.756619     11.758983     0.002364    Cartesian    0.02
     44 y          5.878309      5.879081     0.000771    Cartesian    0.01
     44 z          5.878309      5.879081     0.000771    Cartesian    0.01
     45 x          3.918873      3.918032    -0.000841    Cartesian   -0.02
     45 y          7.837746      7.835561    -0.002185    Cartesian   -0.03
     45 z         11.756619     11.752822    -0.003797    Cartesian   -0.03
     46 x          5.878309      5.880678     0.002369    Cartesian    0.04
     46 y         13.716055     13.719215     0.003160    Cartesian    0.02
     46 z          0.000000      0.000000     0.000000    Cartesian    0.00
     47 x         -1.959436     -1.959403     0.000034    Cartesian   -0.00
     47 y         13.716055     13.715284    -0.000771    Cartesian   -0.01
     47 z          5.878309      5.878248    -0.000061    Cartesian   -0.00
     48 x          9.797182      9.795020    -0.002162    Cartesian   -0.02
     48 y          9.797182      9.795020    -0.002162    Cartesian   -0.02
     48 z          5.878309      5.877299    -0.001011    Cartesian   -0.02
     49 x          5.878309      5.880443     0.002133    Cartesian    0.04
     49 y         13.716055     13.721380     0.005325    Cartesian    0.04
     49 z          3.918873      3.919894     0.001021    Cartesian    0.03
     50 x         11.756619     11.759855     0.003236    Cartesian    0.03
     50 y          9.797182      9.800678     0.003496    Cartesian    0.04
     50 z         -1.959436     -1.960314    -0.000878    Cartesian    0.04
     51 x          0.000000      0.000000     0.000000    Cartesian    0.00
     51 y          0.000000      0.000000     0.000000    Cartesian    0.00
     51 z         15.675492     15.669053    -0.006439    Cartesian   -0.04
     52 x          7.837746      7.839903     0.002157    Cartesian    0.03
     52 y          9.797182      9.801643     0.004460    Cartesian    0.05
     52 z          9.797182      9.801643     0.004460    Cartesian    0.05
     53 x         -1.959436     -1.960279    -0.000843    Cartesian    0.04
     53 y         13.716055     13.722685     0.006629    Cartesian    0.05
     53 z          7.837746      7.840207     0.002461    Cartesian    0.03
     54 x         15.675492     15.680587     0.005095    Cartesian    0.03
     54 y         -1.959436     -1.961529    -0.002092    Cartesian    0.11
     54 z         -1.959436     -1.961529    -0.002092    Cartesian    0.11
     55 x         -1.959436     -1.919242     0.040194    Cartesian   -2.05
     55 y         -1.959436     -1.919242     0.040194    Cartesian   -2.05
     55 z         -1.959436     -1.919242     0.040194    Cartesian   -2.05
     56 x          0.000000      0.000000     0.000000    Cartesian    0.00
     56 y          0.000000      0.000000     0.000000    Cartesian    0.00
     56 z          3.918873      3.877269    -0.041604    Cartesian   -1.06
     57 x          0.000000      0.000000     0.000000    Cartesian    0.00
     57 y          3.918873      3.888026    -0.030847    Cartesian   -0.79
     57 z          3.918873      3.888026    -0.030847    Cartesian   -0.79
     58 x         -1.959436     -1.956452     0.002984    Cartesian   -0.15
     58 y          5.878309      5.875273    -0.003036    Cartesian   -0.05
     58 z         -1.959436     -1.956452     0.002984    Cartesian   -0.15
     59 x          3.918873      3.887138    -0.031735    Cartesian   -0.81
     59 y          3.918873      3.887138    -0.031735    Cartesian   -0.81
     59 z          3.918873      3.887138    -0.031735    Cartesian   -0.81
     60 x          0.000000      0.000000     0.000000    Cartesian    0.00
     60 y          0.000000      0.000000     0.000000    Cartesian    0.00
     60 z          7.837746      7.825501    -0.012245    Cartesian   -0.16
     61 x         -1.959436     -1.957052     0.002384    Cartesian   -0.12
     61 y          5.878309      5.873908    -0.004401    Cartesian   -0.07
     61 z          5.878309      5.873908    -0.004401    Cartesian   -0.07
     62 x          0.000000      0.000000     0.000000    Cartesian    0.00
     62 y          3.918873      3.913771    -0.005102    Cartesian   -0.13
     62 z          7.837746      7.826330    -0.011416    Cartesian   -0.15
     63 x          3.918873      3.913761    -0.005112    Cartesian   -0.13
     63 y          3.918873      3.913761    -0.005112    Cartesian   -0.13
     63 z          7.837746      7.826231    -0.011515    Cartesian   -0.15
     64 x         -1.959436     -1.959158     0.000278    Cartesian   -0.01
     64 y         -1.959436     -1.959158     0.000278    Cartesian   -0.01
     64 z          9.797182      9.797066    -0.000116    Cartesian   -0.00
     65 x          5.878309      5.872319    -0.005990    Cartesian   -0.10
     65 y          5.878309      5.872319    -0.005990    Cartesian   -0.10
     65 z          5.878309      5.872319    -0.005990    Cartesian   -0.10
     66 x          0.000000      0.000000     0.000000    Cartesian    0.00
     66 y          7.837746      7.830890    -0.006856    Cartesian   -0.09
     66 z          7.837746      7.830890    -0.006856    Cartesian   -0.09
     67 x         -1.959436     -1.959008     0.000428    Cartesian   -0.02
     67 y          5.878309      5.877387    -0.000922    Cartesian   -0.02
     67 z          9.797182      9.796266    -0.000917    Cartesian   -0.01
     68 x          0.000000      0.000000     0.000000    Cartesian    0.00
     68 y          0.000000      0.000000     0.000000    Cartesian    0.00
     68 z         11.756619     11.750962    -0.005657    Cartesian   -0.05
     69 x          3.918873      3.915202    -0.003671    Cartesian   -0.09
     69 y          7.837746      7.830320    -0.007426    Cartesian   -0.09
     69 z          7.837746      7.830320    -0.007426    Cartesian   -0.09
     70 x          0.000000      0.000000     0.000000    Cartesian    0.00
     70 y          3.918873      3.916835    -0.002038    Cartesian   -0.05
     70 z         11.756619     11.751534    -0.005085    Cartesian   -0.04
     71 x          5.878309      5.877292    -0.001018    Cartesian   -0.02
     71 y          5.878309      5.877292    -0.001018    Cartesian   -0.02
     71 z          9.797182      9.795509    -0.001674    Cartesian   -0.02
     72 x          3.918873      3.917526    -0.001347    Cartesian   -0.03
     72 y         11.756619     11.751448    -0.005171    Cartesian   -0.04
     72 z          3.918873      3.917526    -0.001347    Cartesian   -0.03
     73 x          7.837746      7.831516    -0.006230    Cartesian   -0.08
     73 y          7.837746      7.831516    -0.006230    Cartesian   -0.08
     73 z          7.837746      7.831516    -0.006230    Cartesian   -0.08
     74 x         -1.959436     -1.959228     0.000209    Cartesian   -0.01
     74 y          9.797182      9.797012    -0.000171    Cartesian   -0.00
     74 z          9.797182      9.797012    -0.000171    Cartesian   -0.00
     75 x         -1.959436     -1.959993    -0.000556    Cartesian    0.03
     75 y         13.716055     13.716672     0.000616    Cartesian    0.00
     75 z         -1.959436     -1.959993    -0.000556    Cartesian    0.03
     76 x          0.000000      0.000000     0.000000    Cartesian    0.00
     76 y          7.837746      7.835573    -0.002173    Cartesian   -0.03
     76 z         11.756619     11.752066    -0.004553    Cartesian   -0.04
     77 x          3.918873      3.917854    -0.001019    Cartesian   -0.03
     77 y          7.837746      7.834902    -0.002844    Cartesian   -0.04
     77 z         11.756619     11.751687    -0.004932    Cartesian   -0.04
     78 x         -1.959436     -1.959402     0.000035    Cartesian   -0.00
     78 y         13.716055     13.715282    -0.000773    Cartesian   -0.01
     78 z          5.878309      5.878246    -0.000064    Cartesian   -0.00
     79 x          9.797182      9.795017    -0.002165    Cartesian   -0.02
     79 y          9.797182      9.795017    -0.002165    Cartesian   -0.02
     79 z          5.878309      5.877295    -0.001015    Cartesian   -0.02
     80 x          0.000000      0.000000     0.000000    Cartesian    0.00
     80 y          0.000000      0.000000     0.000000    Cartesian    0.00
     80 z         15.675492     15.667176    -0.008316    Cartesian   -0.05

  Time to end of optimisation  =       18.3347 seconds

  Timing analysis for GULP :

  Task / Subroutine                                          Time (Seconds)
  Calculation of reciprocal space energy and derivatives          0.0005
  Calculation of reciprocal space energy using symmetry           0.0004
  Calculation of real space energy and derivatives                0.0042
  Calculation of real space energy using symmetry                 0.0035
  Calculation for region 1 energy and derivatives (2-b)          13.5555
  Calculation for region 2a energy                                3.6834
  Calculation for region 2b energy                                0.0002
  Calculation and manipulation of Hessian matrix                  0.2823
  Calculation of matrix inversion                                 0.0036
  Symmetry generation of equivalent positions                     0.0068

  Dump file written as Li3OCl.grs

  Job Finished at 12:29.24  1st December   2020