  Job Started  at 12:29.53  1st December   2020

  Number of CPUs =     1

  Total number of configurations input =      1

*  Input for Configuration =   1                                               *

  Formula = ClOLi3

  Number of irreducible atoms/shells =       5

  Total number atoms/shells =       7

  Dimensionality = 3               :  Bulk

  Symmetry :

  Crystal family                   :  Cubic
  Crystal class  (Groth - 1921)    :  Cubic Hexakisoctahedral

  Space group (centrosymmetric)    :  P M 3 M

  Patterson group                  :  P m -3 m

  Cartesian lattice vectors (Angstroms) :

        3.918873    0.000000    0.000000
        0.000000    3.918873    0.000000
        0.000000    0.000000    3.918873

  Cell parameters (Angstroms/Degrees):

  a =       3.9189    alpha =  90.0000
  b =       3.9189    beta  =  90.0000
  c =       3.9189    gamma =  90.0000

  Initial cell volume =          60.184349 Angs**3

  Temperature of configuration =   0.00     K

  Pressure of configuration =         0.000 GPa

  Fractional coordinates of asymmetric unit :

   No.  Atomic       x           y          z         Charge      Occupancy
        Label      (Frac)      (Frac)     (Frac)        (e)         (Frac)
      1 Cl    c    0.000000    0.000000    0.000000     1.48500    1.000000
      2 O     c    0.500000    0.500000    0.500000     0.18300    1.000000
      3 Li    c    0.500000    0.500000    0.000000     1.00000    1.000000
      4 Cl    s    0.000000    0.000000    0.000000    -2.48500    1.000000
      5 O     s    0.500000    0.500000    0.500000    -2.18300    1.000000

  Constraints :

  Constraint no.      Unconstrained     Constrained    Coefficient    Offset
                         Variable         Variable
           1              Strain 1        Strain 2       1.00000      0.0000
           2              Strain 1        Strain 3       1.00000      0.0000

*  General input information                                                   *

  Species output for all configurations :

  Species    Type    Atomic    Atomic    Charge       Radii (Angs)     Library
                     Number     Mass       (e)     Cova   Ionic  VDW   Symbol
    Li       Core        3       6.94   1.000000   0.680  0.000  1.800
    O        Core        8      16.00   0.183000   0.730  0.000  1.360
    O        Shell       8       0.00  -2.183000   0.730  0.000  1.360
    Cl       Core       17      35.45   1.485000   0.990  0.000  1.650
    Cl       Shell      17       0.00  -2.485000   0.990  0.000  1.650
    Mg       Core       12      24.31   0.415000   1.100  0.000  0.000
    Mg       Shell      12       0.00   1.585000   1.100  0.000  0.000
    Ca       Core       20      40.08  -1.135000   0.990  0.000  0.000
    Ca       Shell      20       0.00   3.135000   0.990  0.000  0.000
    Sr       Core       38      87.62  -1.251000   1.120  0.000  0.000
    Sr       Shell      38       0.00   3.251000   1.120  0.000  0.000
    Ba       Core       56     137.33  -7.203000   1.340  0.000  0.000
    Ba       Shell      56       0.00   9.203000   1.340  0.000  0.000

  Lattice summation method               =    Ewald          (3-D)
                                         =    Parry          (2-D)
                                         =    Saunders et al (1-D)
  Accuracy factor for lattice sums       =   12.000

  Analytic derivatives to be used

  Time limit = Infinity

  Maximum range for interatomic potentials =    100000.000000 Angstroms

  General interatomic potentials :

Atom  Types   Potential      Parameter       Value         Units   Cutoffs(Ang)
  1     2                                                            Min /  Max
O    c O    s Spring (c-s)  Spring k 2       593.71600    eV*Ang^-2 0.000  0.800
                            Spring k 4       0.0000000    eV*Ang^-4
Cl   c Cl   s Spring (c-s)  Spring k 2       29.380000    eV*Ang^-2 0.000  0.800
                            Spring k 4       0.0000000    eV*Ang^-4
Mg   c Mg   s Spring (c-s)  Spring k 2       361.60000    eV*Ang^-2 0.000  0.800
                            Spring k 4       0.0000000    eV*Ang^-4
Ca   c Ca   s Spring (c-s)  Spring k 2       110.20000    eV*Ang^-2 0.000  0.800
                            Spring k 4       0.0000000    eV*Ang^-4
Sr   c Sr   s Spring (c-s)  Spring k 2       71.700000    eV*Ang^-2 0.000  0.800
                            Spring k 4       0.0000000    eV*Ang^-4
Ba   c Ba   s Spring (c-s)  Spring k 2       495.20000    eV*Ang^-2 0.000  0.800
                            Spring k 4       0.0000000    eV*Ang^-4
Li   c Li   c Buckingham    Buckingham A     360.53000    eV        0.000 12.000
                            Buckingham rho  0.16100000    Ang
                            Buckingham C     0.0000000    eV*Ang^6
Li   c O    s Buckingham    Buckingham A     292.30000    eV        0.000 12.000
                            Buckingham rho  0.34700000    Ang
                            Buckingham C     0.0000000    eV*Ang^6
Li   c Cl   s Buckingham    Buckingham A     421.04000    eV        0.000 12.000
                            Buckingham rho  0.33400000    Ang
                            Buckingham C     0.0000000    eV*Ang^6
O    s O    s Buckingham    Buckingham A     22764.300    eV        0.000 12.000
                            Buckingham rho  0.14900000    Ang
                            Buckingham C     13.190000    eV*Ang^6
O    s Cl   s Buckingham    Buckingham A     8286.9100    eV        0.000 12.000
                            Buckingham rho  0.25900000    Ang
                            Buckingham C     62.200000    eV*Ang^6
Cl   s Cl   s Buckingham    Buckingham A     1227.2000    eV        0.000 12.000
                            Buckingham rho  0.32100000    Ang
                            Buckingham C     14.530000    eV*Ang^6
O    s Mg   s Buckingham    Buckingham A     1428.5000    eV        0.000 12.000
                            Buckingham rho  0.29450000    Ang
                            Buckingham C     0.0000000    eV*Ang^6
Mg   s Cl   s Buckingham    Buckingham A     4914.5400    eV        0.000 12.000
                            Buckingham rho  0.25700000    Ang
                            Buckingham C     0.0000000    eV*Ang^6
O    s Ca   s Buckingham    Buckingham A     1090.4000    eV        0.000 12.000
                            Buckingham rho  0.34370000    Ang
                            Buckingham C     0.0000000    eV*Ang^6
Cl   s Ca   s Buckingham    Buckingham A     2302.0000    eV        0.000 12.000
                            Buckingham rho  0.34020000    Ang
                            Buckingham C     0.0000000    eV*Ang^6
O    s Sr   s Buckingham    Buckingham A     959.10000    eV        0.000 12.000
                            Buckingham rho  0.37210000    Ang
                            Buckingham C     0.0000000    eV*Ang^6
Cl   s Sr   s Buckingham    Buckingham A     2191.0900    eV        0.000 12.000
                            Buckingham rho  0.34570000    Ang
                            Buckingham C     0.0000000    eV*Ang^6
O    s Ba   s Buckingham    Buckingham A     905.70000    eV        0.000 12.000
                            Buckingham rho  0.39760000    Ang
                            Buckingham C     0.0000000    eV*Ang^6
Cl   s Ba   s Buckingham    Buckingham A     2704.5500    eV        0.000 12.000
                            Buckingham rho  0.35280000    Ang
                            Buckingham C     0.0000000    eV*Ang^6

*  Output for configuration   1                                                *

  Components of energy :

  Interatomic potentials     =           7.24802695 eV
  Monopole - monopole (real) =         -11.53475722 eV
  Monopole - monopole (recip)=         -33.94580548 eV
  Monopole - monopole (total)=         -45.48056271 eV
  Total lattice energy       =         -38.23253575 eV
  Total lattice energy       =           -3688.8553 kJ/(mole unit cells)

  Number of variables =        1

  Maximum number of calculations  =          1000
  Maximum Hessian update interval =            10
  Maximum step size               =   1.000000000
  Maximum parameter tolerance     =   0.000010000
  Maximum function  tolerance     =   0.000010000
  Maximum gradient  tolerance     =   0.001000000
  Maximum gradient  component     =   0.010000000

  Symmetry constrained optimisation

  Symmetry used for second derivatives

  Cell parameters to be optimised using strains

  Newton-Raphson optimiser to be used

  BFGS hessian update to be used

  Lower half triangular hessian to be used

  Start of bulk optimisation :

  **** Optimisation achieved ****

  Final energy =     -38.23253575 eV
  Final Gnorm  =       0.00001878

  Components of energy :

  Interatomic potentials     =           7.24802695 eV
  Monopole - monopole (real) =         -11.53475722 eV
  Monopole - monopole (recip)=         -33.94580548 eV
  Monopole - monopole (total)=         -45.48056271 eV
  Total lattice energy       =         -38.23253575 eV
  Total lattice energy       =           -3688.8553 kJ/(mole unit cells)

  Final asymmetric unit coordinates :

   No.  Atomic        x           y           z         Radius
        Label       (Frac)      (Frac)      (Frac)       (Angs)
     1  Cl    c     0.000000    0.000000    0.000000    0.000000
     2  O     c     0.500000    0.500000    0.500000    0.000000
     3  Li    c     0.500000    0.500000    0.000000    0.000000
     4  Cl    s     0.000000    0.000000    0.000000    0.000000
     5  O     s     0.500000    0.500000    0.500000    0.000000

  Final Cartesian lattice vectors (Angstroms) :

        3.918873    0.000000    0.000000
        0.000000    3.918873    0.000000
        0.000000    0.000000    3.918873

  Final cell parameters and derivatives :

       a            3.918873 Angstrom     dE/de1(xx)    -0.000019 eV/strain
       b            3.918873 Angstrom     dE/de2(yy)     0.000000 eV/strain
       c            3.918873 Angstrom     dE/de3(zz)     0.000000 eV/strain
       alpha       90.000000 Degrees      dE/de4(yz)     0.000000 eV/strain
       beta        90.000000 Degrees      dE/de5(xz)     0.000000 eV/strain
       gamma       90.000000 Degrees      dE/de6(xy)     0.000000 eV/strain

  Primitive cell volume =            60.184349 Angs**3

  Density of cell =      1.994024 g/cm**3

  Non-primitive cell volume =            60.184349 Angs**3

  Final internal derivatives :

   No.  Atomic          a             b             c           Radius
        Label          (eV)          (eV)          (eV)        (eV/Angs)
      1 Cl    c       0.000000      0.000000      0.000000      0.000000
      2 O     c       0.000000      0.000000      0.000000      0.000000
      3 Li    c       0.000000      0.000000      0.000000      0.000000
      4 Cl    s       0.000000      0.000000      0.000000      0.000000
      5 O     s       0.000000      0.000000      0.000000      0.000000
  Maximum abs         0.000000      0.000000      0.000000      0.000000

  Comparison of initial and final structures :

[...]
   1042 y        -13.716055    -13.717458    -0.001402    Cartesian    0.01
   1042 z          1.959436      1.958900    -0.000537    Cartesian   -0.03
   1043 x        -11.756619    -11.755470     0.001149    Cartesian   -0.01
   1043 y          3.918873      3.920182     0.001309    Cartesian    0.03
   1043 z         -3.918873     -3.920130    -0.001257    Cartesian    0.03
   1044 x        -11.756619    -11.757079    -0.000460    Cartesian    0.00
   1044 y         -3.918873     -3.917148     0.001725    Cartesian   -0.04
   1044 z          3.918873      3.916955    -0.001918    Cartesian   -0.05
   1045 x          7.837746      7.837285    -0.000461    Cartesian   -0.01
   1045 y         -3.918873     -3.917345     0.001528    Cartesian   -0.04
   1045 z        -11.756619    -11.757598    -0.000979    Cartesian    0.01
   1046 x          7.837746      7.839371     0.001625    Cartesian    0.02
   1046 y        -11.756619    -11.756309     0.000310    Cartesian   -0.00
   1046 z         -3.918873     -3.921585    -0.002712    Cartesian    0.07
   1047 x         11.756619     11.756346    -0.000273    Cartesian   -0.00
   1047 y          7.837746      7.839437     0.001691    Cartesian    0.02
   1047 z         -7.837746     -7.839070    -0.001324    Cartesian    0.02
   1048 x         11.756619     11.757570     0.000951    Cartesian    0.01
   1048 y         -7.837746     -7.835470     0.002276    Cartesian   -0.03
   1048 z          7.837746      7.835336    -0.002410    Cartesian   -0.03
   1049 x          3.918873      3.918984     0.000111    Cartesian    0.00
   1049 y          0.000000      0.001301     0.001301    Cartesian    0.00
   1049 z         15.675492     15.675534     0.000042    Cartesian    0.00
   1050 x          3.918873      3.918983     0.000110    Cartesian    0.00
   1050 y         15.675492     15.675662     0.000170    Cartesian    0.00
   1050 z          0.000000     -0.001650    -0.001650    Cartesian    0.00
   1051 x         11.756619     11.757895     0.001276    Cartesian    0.01
   1051 y          3.918873      3.920309     0.001436    Cartesian    0.04
   1051 z         11.756619     11.755711    -0.000908    Cartesian   -0.01
   1052 x         11.756619     11.755388    -0.001231    Cartesian   -0.01
   1052 y         11.756619     11.756789     0.000170    Cartesian    0.00
   1052 z          3.918873      3.916852    -0.002021    Cartesian   -0.05
   1053 x         -9.797182     -9.796858     0.000324    Cartesian   -0.00
   1053 y          9.797182      9.797476     0.000294    Cartesian    0.00
   1053 z         -1.959436     -1.959960    -0.000523    Cartesian    0.03
   1054 x         -9.797182     -9.797141     0.000041    Cartesian   -0.00
   1054 y         -1.959436     -1.958765     0.000672    Cartesian   -0.03
   1054 z          9.797182      9.796250    -0.000933    Cartesian   -0.01
   1055 x          5.878309      5.879076     0.000767    Cartesian    0.01
   1055 y         13.716055     13.716978     0.000923    Cartesian    0.01
   1055 z         -5.878310     -5.879225    -0.000916    Cartesian    0.02
   1056 x          9.797182      9.797168    -0.000014    Cartesian   -0.00
   1056 y          1.959436      1.959922     0.000485    Cartesian    0.02
   1056 z         13.716055     13.715619    -0.000437    Cartesian   -0.00
   1057 x          9.797182      9.797260     0.000078    Cartesian    0.00
   1057 y         13.716055     13.716400     0.000344    Cartesian    0.00
   1057 z          1.959436      1.958714    -0.000722    Cartesian   -0.04
   1058 x          5.878309      5.877892    -0.000418    Cartesian   -0.01
   1058 y         -5.878310     -5.877732     0.000577    Cartesian   -0.01
   1058 z         13.716055     13.715509    -0.000547    Cartesian   -0.00
   1059 x          9.797182      9.796762    -0.000421    Cartesian   -0.00
   1059 y         -5.878310     -5.877346     0.000963    Cartesian   -0.02
   1059 z         -9.797182     -9.797189    -0.000007    Cartesian    0.00
   1060 x          9.797182      9.798275     0.001092    Cartesian    0.01
   1060 y         -9.797182     -9.796992     0.000190    Cartesian   -0.00
   1060 z         -5.878310     -5.879502    -0.001192    Cartesian    0.02
   1061 x          1.959436      1.959436     0.000000    Cartesian    0.00
   1061 y         -1.959436     -1.959254     0.000182    Cartesian   -0.01
   1061 z        -13.716055    -13.716393    -0.000338    Cartesian    0.00
   1062 x          1.959436      1.959436     0.000000    Cartesian    0.00
   1062 y        -13.716055    -13.716910    -0.000854    Cartesian    0.01
   1062 z         -1.959436     -1.960459    -0.001023    Cartesian    0.05
   1063 x          3.918873      3.918720    -0.000153    Cartesian   -0.00
   1063 y          3.918873      3.920020     0.001147    Cartesian    0.03
   1063 z         15.675492     15.675194    -0.000298    Cartesian   -0.00
   1064 x          3.918873      3.919154     0.000281    Cartesian    0.01
   1064 y         15.675492     15.675956     0.000464    Cartesian    0.00
   1064 z          3.918873      3.917499    -0.001374    Cartesian   -0.04
   1065 x          7.837746      7.838434     0.000688    Cartesian    0.01
   1065 y         11.756619     11.757277     0.000658    Cartesian    0.01
   1065 z         -7.837746     -7.838915    -0.001169    Cartesian    0.01
   1066 x          7.837746      7.838338     0.000592    Cartesian    0.01
   1066 y         -7.837746     -7.836885     0.000861    Cartesian   -0.01
   1066 z         11.756619     11.756750     0.000131    Cartesian    0.00
   1067 x         -9.797182     -9.796907     0.000276    Cartesian   -0.00
   1067 y         -5.878310     -5.877608     0.000702    Cartesian   -0.01
   1067 z         -5.878310     -5.878259     0.000050    Cartesian   -0.00
   1068 x          9.797182      9.797338     0.000155    Cartesian    0.00
   1068 y         13.716055     13.716344     0.000289    Cartesian    0.00
   1068 z         -1.959436     -1.960048    -0.000612    Cartesian    0.03
   1069 x          9.797182      9.797142    -0.000040    Cartesian   -0.00
   1069 y         -1.959436     -1.958879     0.000557    Cartesian   -0.03
   1069 z         13.716055     13.715694    -0.000362    Cartesian   -0.00
   1070 x          5.878309      5.878286    -0.000024    Cartesian   -0.00
   1070 y          1.959436      1.959701     0.000264    Cartesian    0.01
   1070 z        -13.716055    -13.716608    -0.000552    Cartesian    0.00
   1071 x          5.878309      5.879028     0.000718    Cartesian    0.01
   1071 y        -13.716055    -13.716700    -0.000644    Cartesian    0.00
   1071 z          1.959436      1.958968    -0.000468    Cartesian   -0.02
   1072 x          1.959436      1.959436     0.000000    Cartesian    0.00
   1072 y         -9.797182     -9.796348     0.000835    Cartesian   -0.01
   1072 z         -9.797182     -9.798017    -0.000835    Cartesian    0.01
   1073 x        -11.756619    -11.756992    -0.000373    Cartesian    0.00
   1073 y          0.000000      0.001188     0.001188    Cartesian    0.00
   1073 z          7.837746      7.836101    -0.001645    Cartesian   -0.02
   1074 x        -11.756619    -11.755729     0.000890    Cartesian   -0.01
   1074 y          7.837746      7.838516     0.000770    Cartesian    0.01
   1074 z          0.000000     -0.001241    -0.001241    Cartesian    0.00
   1075 x        -11.756619    -11.756201     0.000418    Cartesian   -0.00
   1075 y         -3.918873     -3.917501     0.001372    Cartesian   -0.04
   1075 z         -3.918873     -3.919712    -0.000839    Cartesian    0.02
   1076 x         11.756619     11.757753     0.001134    Cartesian    0.01
   1076 y         -3.918873     -3.917864     0.001009    Cartesian   -0.03
   1076 z         11.756619     11.756062    -0.000557    Cartesian   -0.00
   1077 x         11.756619     11.755715    -0.000904    Cartesian   -0.01
   1077 y         11.756619     11.756580    -0.000039    Cartesian   -0.00
   1077 z         -3.918873     -3.919732    -0.000859    Cartesian    0.02
   1078 x          3.918873      3.919042     0.000169    Cartesian    0.00
   1078 y         11.756619     11.758581     0.001962    Cartesian    0.02
   1078 z         11.756619     11.755397    -0.001222    Cartesian   -0.01
   1079 x         -9.797182     -9.796832     0.000351    Cartesian   -0.00
   1079 y          9.797182      9.797355     0.000172    Cartesian    0.00
   1079 z          5.878309      5.877408    -0.000901    Cartesian   -0.02
   1080 x          1.959436      1.959436     0.000000    Cartesian    0.00
   1080 y          9.797182      9.796802    -0.000381    Cartesian   -0.00
   1080 z         13.716055     13.715877    -0.000179    Cartesian   -0.00
   1081 x          1.959436      1.959436     0.000000    Cartesian    0.00
   1081 y         13.716055     13.716472     0.000416    Cartesian    0.00
   1081 z          9.797182      9.797714     0.000531    Cartesian    0.01
   1082 x         -9.797182     -9.797178     0.000005    Cartesian   -0.00
   1082 y          5.878309      5.878801     0.000491    Cartesian    0.01
   1082 z          9.797182      9.796667    -0.000516    Cartesian   -0.01
   1083 x          1.959436      1.959436     0.000000    Cartesian    0.00
   1083 y          5.878309      5.878449     0.000139    Cartesian    0.00
   1083 z        -13.716055    -13.716543    -0.000488    Cartesian    0.00
   1084 x          1.959436      1.959436     0.000000    Cartesian    0.00
   1084 y        -13.716055    -13.716622    -0.000567    Cartesian    0.00
   1084 z          5.878309      5.878486     0.000177    Cartesian    0.00
   1085 x          5.878309      5.878198    -0.000111    Cartesian   -0.00
   1085 y         -1.959436     -1.959063     0.000374    Cartesian   -0.02
   1085 z        -13.716055    -13.716286    -0.000230    Cartesian    0.00
   1086 x          5.878309      5.878841     0.000532    Cartesian    0.01
   1086 y        -13.716055    -13.716628    -0.000573    Cartesian    0.00
   1086 z         -1.959436     -1.960469    -0.001033    Cartesian    0.05
   1087 x        -11.756619    -11.756681    -0.000062    Cartesian    0.00
   1087 y          3.918873      3.919898     0.001025    Cartesian    0.03
   1087 z          7.837746      7.836219    -0.001527    Cartesian   -0.02
   1088 x        -11.756619    -11.756008     0.000611    Cartesian   -0.01
   1088 y          7.837746      7.838587     0.000841    Cartesian    0.01
   1088 z          3.918873      3.917487    -0.001386    Cartesian   -0.04
   1089 x          3.918873      3.918911     0.000038    Cartesian    0.00
   1089 y         -7.837746     -7.836408     0.001338    Cartesian   -0.02
   1089 z        -11.756619    -11.757705    -0.001086    Cartesian    0.01
   1090 x          3.918873      3.919009     0.000136    Cartesian    0.00
   1090 y        -11.756619    -11.755959     0.000660    Cartesian   -0.01
   1090 z         -7.837746     -7.839821    -0.002075    Cartesian    0.03
   1091 x          7.837746      7.837712    -0.000034    Cartesian   -0.00
   1091 y          7.837746      7.838468     0.000722    Cartesian    0.01
   1091 z        -11.756619    -11.757226    -0.000607    Cartesian    0.01
   1092 x          7.837746      7.839187     0.001441    Cartesian    0.02
   1092 y        -11.756619    -11.757274    -0.000655    Cartesian    0.01
   1092 z          7.837746      7.837699    -0.000047    Cartesian   -0.00
   1093 x          3.918873      3.918975     0.000102    Cartesian    0.00
   1093 y         15.675492     15.675429    -0.000063    Cartesian   -0.00
   1093 z         -3.918873     -3.920175    -0.001302    Cartesian    0.03
   1094 x          3.918873      3.918886     0.000013    Cartesian    0.00
   1094 y         -3.918873     -3.917883     0.000990    Cartesian   -0.03
   1094 z         15.675492     15.675912     0.000420    Cartesian    0.00
   1095 x          9.797182      9.797236     0.000053    Cartesian    0.00
   1095 y          5.878309      5.878646     0.000336    Cartesian    0.01
   1095 z         13.716055     13.715953    -0.000103    Cartesian   -0.00
   1096 x          9.797182      9.797347     0.000164    Cartesian    0.00
   1096 y         13.716055     13.716084     0.000028    Cartesian    0.00
   1096 z          5.878309      5.877636    -0.000673    Cartesian   -0.01
   1097 x          5.878309      5.878390     0.000081    Cartesian    0.00
   1097 y         -9.797182     -9.796932     0.000250    Cartesian   -0.00
   1097 z         -9.797182     -9.797302    -0.000120    Cartesian    0.00
   1098 x         17.634928     17.634709    -0.000220    Cartesian   -0.00
   1098 y          1.959436      1.959940     0.000504    Cartesian    0.03
   1098 z          1.959436      1.958888    -0.000549    Cartesian   -0.03
   1099 x         11.756619     11.756399    -0.000220    Cartesian   -0.00
   1099 y         -7.837746     -7.835562     0.002184    Cartesian   -0.03
   1099 z         -7.837746     -7.838399    -0.000653    Cartesian    0.01
   1100 x          7.837746      7.838034     0.000288    Cartesian    0.00
   1100 y          0.000000      0.000843     0.000843    Cartesian    0.00
   1100 z         15.675492     15.675401    -0.000091    Cartesian   -0.00
   1101 x          7.837746      7.837754     0.000008    Cartesian    0.00
   1101 y         15.675492     15.675695     0.000203    Cartesian    0.00
   1101 z          0.000000     -0.000955    -0.000955    Cartesian    0.00
   1102 x          5.878309      5.878087    -0.000223    Cartesian   -0.00
   1102 y          9.797182      9.797520     0.000338    Cartesian    0.00
   1102 z         13.716055     13.715905    -0.000151    Cartesian   -0.00
   1103 x          5.878309      5.878641     0.000332    Cartesian    0.01
   1103 y         13.716055     13.716378     0.000322    Cartesian    0.00
   1103 z          9.797182      9.796943    -0.000239    Cartesian   -0.00
   1104 x          9.797182      9.798191     0.001009    Cartesian    0.01
   1104 y         -9.797182     -9.797329    -0.000146    Cartesian    0.00
   1104 z          9.797182      9.797527     0.000344    Cartesian    0.00
   1105 x         -9.797182     -9.797269    -0.000086    Cartesian    0.00
   1105 y          1.959436      1.959532     0.000096    Cartesian    0.00
   1105 z         -9.797182     -9.797837    -0.000654    Cartesian    0.01
   1106 x         -9.797182     -9.796890     0.000293    Cartesian   -0.00
   1106 y         -9.797182     -9.796176     0.001006    Cartesian   -0.01
   1106 z          1.959436      1.959174    -0.000263    Cartesian   -0.01
   1107 x          5.878309      5.878215    -0.000094    Cartesian   -0.00
   1107 y          5.878309      5.878496     0.000187    Cartesian    0.00
   1107 z        -13.716055    -13.716258    -0.000202    Cartesian    0.00
   1108 x          5.878309      5.878879     0.000569    Cartesian    0.01
   1108 y        -13.716055    -13.716620    -0.000564    Cartesian    0.00
   1108 z          5.878309      5.878316     0.000007    Cartesian    0.00
   1109 x          9.797182      9.797160    -0.000022    Cartesian   -0.00
   1109 y          9.797182      9.797352     0.000169    Cartesian    0.00
   1109 z         -9.797182     -9.797492    -0.000309    Cartesian    0.00
   1110 x         17.634928     17.634766    -0.000163    Cartesian   -0.00
   1110 y          1.959436      1.959822     0.000385    Cartesian    0.02
   1110 z         -1.959436     -1.959724    -0.000287    Cartesian    0.01
   1111 x         17.634928     17.634800    -0.000128    Cartesian   -0.00
   1111 y         -1.959436     -1.959093     0.000344    Cartesian   -0.02
   1111 z          1.959436      1.958962    -0.000474    Cartesian   -0.02

  Time to end of optimisation  =      244.4956 seconds

  Timing analysis for GULP :

  Task / Subroutine                                          Time (Seconds)
  Calculation of reciprocal space energy and derivatives          0.0006
  Calculation of reciprocal space energy using symmetry           0.0004
  Calculation of real space energy and derivatives                0.0045
  Calculation of real space energy using symmetry                 0.0032
  Calculation for region 1 energy and derivatives (2-b)         128.7779
  Calculation for region 2a energy                               73.5414
  Calculation and manipulation of Hessian matrix                  0.9394
  Calculation of matrix inversion                                39.8871
  Symmetry generation of equivalent positions                     0.0044

  Dump file written as Li3OCl.grs

  Job Finished at 12:34.02  1st December   2020