  Job Started  at 15:09.38 28th October    2020

  Number of CPUs =     1

  Total number of configurations input =      1

*  Input for Configuration =   1                                               *

  Formula = ClOLi3

  Number of irreducible atoms/shells =       5

  Total number atoms/shells =       7

  Dimensionality = 3               :  Bulk

  Symmetry :

  Crystal family                   :  Cubic
  Crystal class  (Groth - 1921)    :  Cubic Hexakisoctahedral

  Space group (centrosymmetric)    :  P M 3 M

  Patterson group                  :  P m -3 m

  Cartesian lattice vectors (Angstroms) :

        3.918873    0.000000    0.000000
        0.000000    3.918873    0.000000
        0.000000    0.000000    3.918873

  Cell parameters (Angstroms/Degrees):

  a =       3.9189    alpha =  90.0000
  b =       3.9189    beta  =  90.0000
  c =       3.9189    gamma =  90.0000

  Initial cell volume =          60.184349 Angs**3

  Temperature of configuration =   0.00     K

  Pressure of configuration =         0.000 GPa

  Fractional coordinates of asymmetric unit :

   No.  Atomic       x           y          z         Charge      Occupancy
        Label      (Frac)      (Frac)     (Frac)        (e)         (Frac)
      1 Cl    c    0.500000    0.500000    0.500000     1.48500    1.000000
      2 O     c    0.000000    0.000000    0.000000     0.18300    1.000000
      3 Li    c    0.500000    0.000000    0.000000     1.00000    1.000000
      4 Cl    s    0.500000    0.500000    0.500000    -2.48500    1.000000
      5 O     s    0.000000    0.000000    0.000000    -2.18300    1.000000

  Constraints :

  Constraint no.      Unconstrained     Constrained    Coefficient    Offset
                         Variable         Variable
           1              Strain 1        Strain 2       1.00000      0.0000
           2              Strain 1        Strain 3       1.00000      0.0000

*  General input information                                                   *

  Species output for all configurations :

  Species    Type    Atomic    Atomic    Charge       Radii (Angs)     Library
                     Number     Mass       (e)     Cova   Ionic  VDW   Symbol
    Li       Core        3       6.94   1.000000   0.680  0.000  1.800
    O        Core        8      16.00   0.183000   0.730  0.000  1.360
    O        Shell       8       0.00  -2.183000   0.730  0.000  1.360
    Cl       Core       17      35.45   1.485000   0.990  0.000  1.650
    Cl       Shell      17       0.00  -2.485000   0.990  0.000  1.650

  Lattice summation method               =    Ewald          (3-D)
                                         =    Parry          (2-D)
                                         =    Saunders et al (1-D)
  Accuracy factor for lattice sums       =   12.000

  Analytic derivatives to be used

  Time limit = Infinity

  Maximum range for interatomic potentials =    100000.000000 Angstroms

  General interatomic potentials :

Atom  Types   Potential      Parameter       Value         Units   Cutoffs(Ang)
  1     2                                                            Min /  Max
O    c O    s Spring (c-s)  Spring k 2       593.72000    eV*Ang^-2 0.000  0.800
                            Spring k 4       0.0000000    eV*Ang^-4
Cl   c Cl   s Spring (c-s)  Spring k 2       29.380000    eV*Ang^-2 0.000  0.800
                            Spring k 4       0.0000000    eV*Ang^-4
Li   c Li   c Buckingham    Buckingham A     360.53000    eV        0.000 12.000
                            Buckingham rho  0.16100000    Ang
                            Buckingham C     0.0000000    eV*Ang^6
Li   c O    s Buckingham    Buckingham A     292.30000    eV        0.000 12.000
                            Buckingham rho  0.34720000    Ang
                            Buckingham C     0.0000000    eV*Ang^6
Li   c Cl   s Buckingham    Buckingham A     421.04000    eV        0.000 12.000
                            Buckingham rho  0.33400000    Ang
                            Buckingham C     0.0000000    eV*Ang^6
O    s O    s Buckingham    Buckingham A     22764.300    eV        0.000 12.000
                            Buckingham rho  0.14900000    Ang
                            Buckingham C     13.190000    eV*Ang^6
O    s Cl   s Buckingham    Buckingham A     8286.9100    eV        0.000 12.000
                            Buckingham rho  0.25900000    Ang
                            Buckingham C     62.200000    eV*Ang^6
Cl   s Cl   s Buckingham    Buckingham A     1227.2000    eV        0.000 12.000
                            Buckingham rho  0.32100000    Ang
                            Buckingham C     14.530000    eV*Ang^6

*  Output for configuration   1                                                *

  Components of energy :

  Interatomic potentials     =           7.26836263 eV
  Monopole - monopole (real) =         -11.53475722 eV
  Monopole - monopole (recip)=         -33.94580548 eV
  Monopole - monopole (total)=         -45.48056271 eV
  Total lattice energy       =         -38.21220008 eV
  Total lattice energy       =           -3686.8932 kJ/(mole unit cells)

  Number of variables =        1

  Maximum number of calculations  =          1000
  Maximum Hessian update interval =            10
  Maximum step size               =   1.000000000
  Maximum parameter tolerance     =   0.000010000
  Maximum function  tolerance     =   0.000010000
  Maximum gradient  tolerance     =   0.001000000
  Maximum gradient  component     =   0.010000000

  Symmetry constrained optimisation

  Symmetry used for second derivatives

  Cell parameters to be optimised using strains

  Newton-Raphson optimiser to be used

  BFGS hessian update to be used

  Lower half triangular hessian to be used

  Start of bulk optimisation :

  ** Hessian calculated **

  **** Optimisation achieved ****

  Final energy =     -38.21222207 eV
  Final Gnorm  =       0.00000001

  Components of energy :

  Interatomic potentials     =           7.24743137 eV
  Monopole - monopole (real) =         -11.52945422 eV
  Monopole - monopole (recip)=         -33.93019921 eV
  Monopole - monopole (total)=         -45.45965344 eV
  Total lattice energy       =         -38.21222207 eV
  Total lattice energy       =           -3686.8953 kJ/(mole unit cells)

  Final asymmetric unit coordinates :

   No.  Atomic        x           y           z         Radius
        Label       (Frac)      (Frac)      (Frac)       (Angs)
     1  Cl    c     0.500000    0.500000    0.500000    0.000000
     2  O     c     0.000000    0.000000    0.000000    0.000000
     3  Li    c     0.500000    0.000000    0.000000    0.000000
     4  Cl    s     0.500000    0.500000    0.500000    0.000000
     5  O     s     0.000000    0.000000    0.000000    0.000000

  Final Cartesian lattice vectors (Angstroms) :

        3.920675    0.000000    0.000000
        0.000000    3.920675    0.000000
        0.000000    0.000000    3.920675

  Final cell parameters and derivatives :

       a            3.920675 Angstrom     dE/de1(xx)     0.000000 eV/strain
       b            3.920675 Angstrom     dE/de2(yy)     0.000000 eV/strain
       c            3.920675 Angstrom     dE/de3(zz)     0.000000 eV/strain
       alpha       90.000000 Degrees      dE/de4(yz)     0.000000 eV/strain
       beta        90.000000 Degrees      dE/de5(xz)     0.000000 eV/strain
       gamma       90.000000 Degrees      dE/de6(xy)     0.000000 eV/strain

  Primitive cell volume =            60.267433 Angs**3

  Density of cell =      1.991276 g/cm**3

  Non-primitive cell volume =            60.267433 Angs**3

  Final internal derivatives :

   No.  Atomic          a             b             c           Radius
        Label          (eV)          (eV)          (eV)        (eV/Angs)
      1 Cl    c       0.000000      0.000000      0.000000      0.000000
      2 O     c       0.000000      0.000000      0.000000      0.000000
      3 Li    c       0.000000      0.000000      0.000000      0.000000
      4 Cl    s       0.000000      0.000000      0.000000      0.000000
      5 O     s       0.000000      0.000000      0.000000      0.000000
  Maximum abs         0.000000      0.000000      0.000000      0.000000

  Comparison of initial and final structures :

  Parameter   Initial value   Final value   Difference    Units      Percent
    Volume        60.184349     60.267433     0.083084    Angs**3      0.14
    a              3.918873      3.920675     0.001802    Angstroms    0.05
    b              3.918873      3.920675     0.001802    Angstroms    0.05
    c              3.918873      3.920675     0.001802    Angstroms    0.05
    alpha         90.000000     90.000000     0.000000    Degrees      0.00
    beta          90.000000     90.000000     0.000000    Degrees      0.00
    gamma         90.000000     90.000000     0.000000    Degrees      0.00
      1 x          0.500000      0.500000     0.000000    Fractional   0.00
      1 y          0.500000      0.500000     0.000000    Fractional   0.00
      1 z          0.500000      0.500000     0.000000    Fractional   0.00
      2 x          0.000000      0.000000     0.000000    Fractional   0.00
      2 y          0.000000      0.000000     0.000000    Fractional   0.00
      2 z          0.000000      0.000000     0.000000    Fractional   0.00
      3 x          0.500000      0.500000     0.000000    Fractional   0.00
      3 y          0.000000      0.000000     0.000000    Fractional   0.00
      3 z          0.000000      0.000000     0.000000    Fractional   0.00
      4 x          0.500000      0.500000     0.000000    Fractional   0.00
      4 y          0.500000      0.500000     0.000000    Fractional   0.00
      4 z          0.500000      0.500000     0.000000    Fractional   0.00
      5 x          0.000000      0.000000     0.000000    Fractional   0.00
      5 y          0.000000      0.000000     0.000000    Fractional   0.00
      5 z          0.000000      0.000000     0.000000    Fractional   0.00

  Born effective charge tensors :

  Atom             x           y             z
    1 Cl    x      -0.9489      0.0000     -0.0000
            y       0.0000     -0.9489     -0.0000
            z      -0.0000     -0.0000     -0.9489
    2 O     x      -2.4688      0.0000     -0.0000
            y       0.0000     -2.4688     -0.0000
            z      -0.0000     -0.0000     -2.4688
    3 Li    x       0.7919     -0.0000      0.0000
            y      -0.0000      1.3129      0.0000
            z      -0.0000      0.0000      1.3129

  Elastic Constant Matrix: (Units=GPa)

  Indices      1         2         3         4         5         6
       1     94.3368   44.9178   44.9178   -0.0000   -0.0000    0.0000
       2     44.9178   94.3368   44.9178    0.0000   -0.0000    0.0000
       3     44.9178   44.9178   94.3368    0.0000    0.0000   -0.0000
       4     -0.0000    0.0000    0.0000   44.9178   -0.0000    0.0000
       5     -0.0000   -0.0000    0.0000   -0.0000   44.9178    0.0000
       6      0.0000    0.0000   -0.0000    0.0000    0.0000   44.9178

  Elastic Compliance Matrix: (Units=1/GPa)

[...]
   1056 z         13.722364     13.719167    -0.003197    Cartesian   -0.02
   1057 x          9.801689      9.799519    -0.002169    Cartesian   -0.02
   1057 y        -13.722364    -13.717612     0.004752    Cartesian   -0.03
   1057 z          5.881013      5.879418    -0.001595    Cartesian   -0.03
   1058 x         -1.960338     -1.960714    -0.000376    Cartesian    0.02
   1058 y         -1.960338     -1.960714    -0.000376    Cartesian    0.02
   1058 z         17.643040     17.638412    -0.004628    Cartesian   -0.03
   1059 x          5.881013      5.881249     0.000236    Cartesian    0.00
   1059 y         -1.960338     -1.960573    -0.000235    Cartesian    0.01
   1059 z         17.643040     17.638585    -0.004455    Cartesian   -0.03
   1060 x          5.881013      5.881391     0.000378    Cartesian    0.01
   1060 y          5.881013      5.881391     0.000378    Cartesian    0.01
   1060 z         17.643040     17.638414    -0.004626    Cartesian   -0.03
   1061 x         17.643040     17.638288    -0.004751    Cartesian   -0.03
   1061 y         -5.881013     -5.878842     0.002171    Cartesian   -0.04
   1061 z          5.881013      5.879418    -0.001596    Cartesian   -0.03
   1062 x         13.722364     13.722553     0.000188    Cartesian    0.00
   1062 y         -1.960338     -1.960392    -0.000054    Cartesian    0.00
   1062 z         13.722364     13.719170    -0.003194    Cartesian   -0.02
   1063 x          1.960338      1.960819     0.000482    Cartesian    0.02
   1063 y         17.643040     17.639096    -0.003943    Cartesian   -0.02
   1063 z          9.801689      9.798764    -0.002924    Cartesian   -0.03
   1064 x          5.881013      5.881863     0.000850    Cartesian    0.01
   1064 y         13.722364     13.722525     0.000161    Cartesian    0.00
   1064 z         13.722364     13.718647    -0.003717    Cartesian   -0.03
   1065 x          9.801689      9.800184    -0.001504    Cartesian   -0.02
   1065 y         17.643040     17.637792    -0.005247    Cartesian   -0.03
   1065 z          5.881013      5.879158    -0.001855    Cartesian   -0.03
   1066 x         -3.920675     -3.921115    -0.000439    Cartesian    0.01
   1066 y        -15.682702    -15.681869     0.000833    Cartesian   -0.01
   1066 z          0.000000      0.000000     0.000000    Cartesian    0.00
   1067 x         -7.841351     -7.841412    -0.000061    Cartesian    0.00
   1067 y        -11.762026    -11.762117    -0.000090    Cartesian    0.00
   1067 z          7.841351      7.840794    -0.000557    Cartesian   -0.01
   1068 x          7.841351      7.841798     0.000447    Cartesian    0.01
   1068 y        -15.682702    -15.681897     0.000805    Cartesian   -0.01
   1068 z          0.000000      0.000000     0.000000    Cartesian    0.00
   1069 x          0.000000     -0.000385    -0.000385    Cartesian    0.00
   1069 y         -7.841351     -7.844512    -0.003161    Cartesian    0.04
   1069 z         15.682702     15.683873     0.001171    Cartesian    0.01
   1070 x          3.920675      3.920842     0.000167    Cartesian    0.00
   1070 y         -7.841351     -7.844628    -0.003277    Cartesian    0.04
   1070 z         15.682702     15.683967     0.001265    Cartesian    0.01
   1071 x         11.762026     11.762413     0.000386    Cartesian    0.00
   1071 y        -11.762026    -11.762641    -0.000615    Cartesian    0.01
   1071 z          7.841351      7.841158    -0.000193    Cartesian   -0.00
   1072 x         15.682702     15.683318     0.000616    Cartesian    0.00
   1072 y         -7.841351     -7.841736    -0.000385    Cartesian    0.00
   1072 z          7.841351      7.841157    -0.000194    Cartesian   -0.00
   1073 x         11.762026     11.765307     0.003280    Cartesian    0.03
   1073 y          0.000000     -0.000168    -0.000168    Cartesian    0.00
   1073 z         15.682702     15.683970     0.001268    Cartesian    0.01
   1074 x         19.603377     19.602573    -0.000805    Cartesian   -0.00
   1074 y         -3.920675     -3.921121    -0.000445    Cartesian    0.01
   1074 z          0.000000      0.000000     0.000000    Cartesian    0.00
   1075 x          3.920675      3.921061     0.000386    Cartesian    0.01
   1075 y         11.762026     11.765192     0.003166    Cartesian    0.03
   1075 z         15.682702     15.683879     0.001177    Cartesian    0.01
   1076 x          7.841351      7.841791     0.000440    Cartesian    0.01
   1076 y         19.603377     19.602547    -0.000830    Cartesian   -0.00
   1076 z          0.000000      0.000000     0.000000    Cartesian    0.00
   1077 x         11.762026     11.762093     0.000066    Cartesian    0.00
   1077 y         15.682702     15.682798     0.000096    Cartesian    0.00
   1077 z          7.841351      7.840796    -0.000555    Cartesian   -0.01
   1078 x         -1.960338     -1.959920     0.000418    Cartesian   -0.02
   1078 y        -13.722364    -13.717264     0.005100    Cartesian   -0.04
   1078 z          9.801689      9.797879    -0.003810    Cartesian   -0.04
   1079 x          5.881013      5.879653    -0.001361    Cartesian   -0.02
   1079 y        -13.722364    -13.717413     0.004951    Cartesian   -0.04
   1079 z          9.801689      9.798015    -0.003674    Cartesian   -0.04
   1080 x         17.643040     17.638091    -0.004949    Cartesian   -0.03
   1080 y         -1.960338     -1.958977     0.001361    Cartesian   -0.07
   1080 z          9.801689      9.798015    -0.003674    Cartesian   -0.04
   1081 x          5.881013      5.880597    -0.000416    Cartesian   -0.01
   1081 y         17.643040     17.637944    -0.005096    Cartesian   -0.03
   1081 z          9.801689      9.797881    -0.003808    Cartesian   -0.04
   1082 x         -3.920675     -3.920997    -0.000321    Cartesian    0.01
   1082 y        -15.682702    -15.681997     0.000705    Cartesian   -0.00
   1082 z          3.920675      3.920626    -0.000049    Cartesian   -0.00
   1083 x         -3.920675     -3.920687    -0.000012    Cartesian    0.00
   1083 y        -11.762026    -11.761502     0.000524    Cartesian   -0.00
   1083 z         11.762026     11.760282    -0.001745    Cartesian   -0.01
   1084 x          7.841351      7.841641     0.000290    Cartesian    0.00
   1084 y        -15.682702    -15.682025     0.000677    Cartesian   -0.00
   1084 z          3.920675      3.920638    -0.000038    Cartesian   -0.00
   1085 x          7.841351      7.841167    -0.000184    Cartesian   -0.00
   1085 y        -11.762026    -11.761784     0.000243    Cartesian   -0.00
   1085 z         11.762026     11.760435    -0.001591    Cartesian   -0.01
   1086 x         15.682702     15.682461    -0.000241    Cartesian   -0.00
   1086 y         -3.920675     -3.920492     0.000183    Cartesian   -0.00
   1086 z         11.762026     11.760436    -0.001591    Cartesian   -0.01
   1087 x         19.603377     19.602701    -0.000677    Cartesian   -0.00
   1087 y         -3.920675     -3.920964    -0.000289    Cartesian    0.01
   1087 z          3.920675      3.920637    -0.000038    Cartesian   -0.00
   1088 x          7.841351      7.841365     0.000014    Cartesian    0.00
   1088 y         15.682702     15.682183    -0.000519    Cartesian   -0.00
   1088 z         11.762026     11.760285    -0.001741    Cartesian   -0.01
   1089 x          7.841351      7.841674     0.000323    Cartesian    0.00
   1089 y         19.603377     19.602675    -0.000703    Cartesian   -0.00
   1089 z          3.920675      3.920627    -0.000049    Cartesian   -0.00
   1090 x         -9.801689     -9.797844     0.003845    Cartesian   -0.04
   1090 y         -9.801689     -9.797844     0.003845    Cartesian   -0.04
   1090 z          9.801689      9.796436    -0.005253    Cartesian   -0.05
   1091 x          1.960338      1.960133    -0.000204    Cartesian   -0.01
   1091 y         -5.881013     -5.879613     0.001401    Cartesian   -0.02
   1091 z         17.643040     17.635639    -0.007401    Cartesian   -0.04
   1092 x         13.722364     13.719702    -0.002662    Cartesian   -0.02
   1092 y         -9.801689     -9.799025     0.002664    Cartesian   -0.03
   1092 z          9.801689      9.798325    -0.003364    Cartesian   -0.03
   1093 x          1.960338      1.960542     0.000205    Cartesian    0.01
   1093 y          9.801689      9.800291    -0.001398    Cartesian   -0.01
   1093 z         17.643040     17.635640    -0.007399    Cartesian   -0.04
   1094 x         13.722364     13.718527    -0.003837    Cartesian   -0.03
   1094 y         13.722364     13.718527    -0.003837    Cartesian   -0.03
   1094 z          9.801689      9.796439    -0.005250    Cartesian   -0.05
   1095 x        -11.762026    -11.759704     0.002322    Cartesian   -0.02
   1095 y        -11.762026    -11.759704     0.002322    Cartesian   -0.02
   1095 z          0.000000      0.000000     0.000000    Cartesian    0.00
   1096 x          0.000000     -0.000144    -0.000144    Cartesian    0.00
   1096 y        -15.682702    -15.680319     0.002383    Cartesian   -0.02
   1096 z          7.841351      7.839627    -0.001724    Cartesian   -0.02
   1097 x          3.920675      3.920575    -0.000100    Cartesian   -0.00
   1097 y        -15.682702    -15.680277     0.002425    Cartesian   -0.02
   1097 z          7.841351      7.839648    -0.001703    Cartesian   -0.02
   1098 x         -3.920675     -3.919742     0.000934    Cartesian   -0.02
   1098 y         -7.841351     -7.840597     0.000754    Cartesian   -0.01
   1098 z         15.682702     15.680064    -0.002638    Cartesian   -0.02
   1099 x          7.841351      7.840348    -0.001003    Cartesian   -0.01
   1099 y         -7.841351     -7.840644     0.000707    Cartesian   -0.01
   1099 z         15.682702     15.680323    -0.002379    Cartesian   -0.02
   1100 x         15.682702     15.680634    -0.002068    Cartesian   -0.01
   1100 y        -11.762026    -11.759958     0.002069    Cartesian   -0.02
   1100 z          0.000000      0.000000     0.000000    Cartesian    0.00
   1101 x         11.762026     11.761320    -0.000706    Cartesian   -0.01
   1101 y         -3.920675     -3.919673     0.001003    Cartesian   -0.03
   1101 z         15.682702     15.680324    -0.002378    Cartesian   -0.02
   1102 x          7.841351      7.840419    -0.000932    Cartesian   -0.01
   1102 y         11.762026     11.761275    -0.000751    Cartesian   -0.01
   1102 z         15.682702     15.680068    -0.002634    Cartesian   -0.02
   1103 x         19.603377     19.600954    -0.002424    Cartesian   -0.01
   1103 y          0.000000      0.000101     0.000101    Cartesian    0.00
   1103 z          7.841351      7.839647    -0.001704    Cartesian   -0.02
   1104 x          3.920675      3.920820     0.000144    Cartesian    0.00
   1104 y         19.603377     19.600996    -0.002382    Cartesian   -0.01
   1104 z          7.841351      7.839628    -0.001723    Cartesian   -0.02
   1105 x         15.682702     15.680382    -0.002320    Cartesian   -0.01
   1105 y         15.682702     15.680382    -0.002320    Cartesian   -0.01
   1105 z          0.000000      0.000000     0.000000    Cartesian    0.00
   1106 x         -9.801689     -9.795655     0.006034    Cartesian   -0.06
   1106 y        -13.722364    -13.713554     0.008810    Cartesian   -0.06
   1106 z         -1.960338     -1.958747     0.001590    Cartesian   -0.08
   1107 x         -5.881013     -5.878349     0.002664    Cartesian   -0.05
   1107 y         -9.801689     -9.797900     0.003789    Cartesian   -0.04
   1107 z         13.722364     13.715208    -0.007157    Cartesian   -0.05
   1108 x          1.960338      1.960069    -0.000268    Cartesian   -0.01
   1108 y        -17.643040    -17.630564     0.012476    Cartesian   -0.07
   1108 z         -1.960338     -1.959056     0.001281    Cartesian   -0.07
   1109 x         -1.960338     -1.958929     0.001409    Cartesian   -0.07
   1109 y         -5.881013     -5.878799     0.002214    Cartesian   -0.04
   1109 z         17.643040     17.634563    -0.008477    Cartesian   -0.05
   1110 x          9.801689      9.798730    -0.002959    Cartesian   -0.03
   1110 y         -9.801689     -9.798073     0.003616    Cartesian   -0.04
   1110 z         13.722364     13.715809    -0.006555    Cartesian   -0.05
   1111 x          5.881013      5.879344    -0.001669    Cartesian   -0.03
   1111 y         -5.881013     -5.878769     0.002244    Cartesian   -0.04
   1111 z         17.643040     17.634864    -0.008175    Cartesian   -0.05
   1112 x         13.722364     13.716230    -0.006134    Cartesian   -0.04
   1112 y        -13.722364    -13.714170     0.008194    Cartesian   -0.06
   1112 z         -1.960338     -1.958820     0.001518    Cartesian   -0.08
   1113 x          9.801689      9.799446    -0.002243    Cartesian   -0.02
   1113 y         -1.960338     -1.958669     0.001669    Cartesian   -0.09
   1113 z         17.643040     17.634865    -0.008175    Cartesian   -0.05
   1114 x         17.643040     17.634846    -0.008194    Cartesian   -0.05
   1114 y         -9.801689     -9.795552     0.006136    Cartesian   -0.06
   1114 z         -1.960338     -1.958820     0.001518    Cartesian   -0.08
   1115 x         13.722364     13.718750    -0.003614    Cartesian   -0.03
   1115 y         -5.881013     -5.878055     0.002959    Cartesian   -0.05
   1115 z         13.722364     13.715810    -0.006555    Cartesian   -0.05
   1116 x          5.881013      5.879605    -0.001408    Cartesian   -0.02
   1116 y          9.801689      9.799478    -0.002211    Cartesian   -0.02
   1116 z         17.643040     17.634566    -0.008474    Cartesian   -0.05
   1117 x          9.801689      9.799027    -0.002661    Cartesian   -0.03
   1117 y         13.722364     13.718582    -0.003782    Cartesian   -0.03
   1117 z         13.722364     13.715213    -0.007151    Cartesian   -0.05
   1118 x          1.960338      1.960607     0.000269    Cartesian    0.01
   1118 y         21.563715     21.551240    -0.012475    Cartesian   -0.06
   1118 z         -1.960338     -1.959056     0.001282    Cartesian   -0.07
   1119 x         13.722364     13.716333    -0.006031    Cartesian   -0.04
   1119 y         17.643040     17.634233    -0.008806    Cartesian   -0.05
   1119 z         -1.960338     -1.958747     0.001590    Cartesian   -0.08
   1120 x        -11.762026    -11.758196     0.003831    Cartesian   -0.03
   1120 y        -11.762026    -11.758196     0.003831    Cartesian   -0.03
   1120 z          3.920675      3.918561    -0.002114    Cartesian   -0.05
   1121 x          0.000000      0.001125     0.001125    Cartesian    0.00
   1121 y          0.000000      0.001125     0.001125    Cartesian    0.00
   1121 z         19.603377     19.599202    -0.004176    Cartesian   -0.02
   1122 x          3.920675      3.919527    -0.001148    Cartesian   -0.03
   1122 y          0.000000      0.001149     0.001149    Cartesian    0.00
   1122 z         19.603377     19.599200    -0.004178    Cartesian   -0.02
   1123 x         15.682702     15.679379    -0.003323    Cartesian   -0.02
   1123 y        -11.762026    -11.758703     0.003324    Cartesian   -0.03
   1123 z          3.920675      3.918601    -0.002074    Cartesian   -0.05
   1124 x          3.920675      3.919551    -0.001124    Cartesian   -0.03
   1124 y          3.920675      3.919551    -0.001124    Cartesian   -0.03
   1124 z         19.603377     19.599202    -0.004175    Cartesian   -0.02
   1125 x         15.682702     15.678874    -0.003828    Cartesian   -0.02
   1125 y         15.682702     15.678874    -0.003828    Cartesian   -0.02
   1125 z          3.920675      3.918561    -0.002115    Cartesian   -0.05

  Time to end of optimisation  =      746.5145 seconds

  Timing analysis for GULP :

  Task / Subroutine                                          Time (Seconds)
  Calculation of reciprocal space energy and derivatives          0.0002
  Calculation of reciprocal space energy using symmetry           0.0003
  Calculation of real space energy and derivatives                0.0018
  Calculation of real space energy using symmetry                 0.0039
  Calculation for region 1 energy and derivatives (2-b)         267.0483
  Calculation for region 2a energy                               90.4789
  Calculation for region 2b energy                                0.0030
  Calculation and manipulation of Hessian matrix                346.2416
  Calculation of matrix inversion                                41.1097
  Symmetry generation of equivalent positions                     0.0018

  Dump file written as Li3OCl.grs

  Job Finished at 15:22.04 28th October    2020