  Job Started  at 19:10.05  4th October    2020

  Number of CPUs =     1

  Total number of configurations input =      1

*  Input for Configuration =   1 : NaCl                                        *

  Formula = NaCl

  Number of irreducible atoms/shells =       4

  Total number atoms/shells =       4

  Dimensionality = 3               :  Bulk

  Symmetry :

  Crystal family                   :  Cubic
  Crystal class  (Groth - 1921)    :  Cubic Hexakisoctahedral

  Space group (centrosymmetric)    :  F M 3 M

  Patterson group                  :  F m -3 m

  Cartesian lattice vectors (Angstroms) :

        0.000000    2.789000    2.789000
        2.789000    0.000000    2.789000
        2.789000    2.789000    0.000000

  Primitive cell parameters :            Full cell parameters :

  a =   3.9442    alpha =  60.0000       a =   5.5780    alpha =  90.0000
  b =   3.9442    beta  =  60.0000       b =   5.5780    beta  =  90.0000
  c =   3.9442    gamma =  60.0000       c =   5.5780    gamma =  90.0000

  Initial volumes (Angstroms**3):

  Primitive cell =          43.388590    Full cell =         173.554361

  Temperature of configuration =   0.00     K

  Pressure of configuration =         0.000 GPa

  Fractional coordinates of asymmetric unit :

   No.  Atomic       x           y          z         Charge      Occupancy
        Label      (Frac)      (Frac)     (Frac)        (e)         (Frac)
      1 Na    c    0.000000    0.000000    0.000000    -1.12800    1.000000
      2 Cl    c    0.500000    0.000000    0.000000     1.48500    1.000000
      3 Na    s    0.000000    0.000000    0.000000     2.12800    1.000000
      4 Cl    s    0.500000    0.000000    0.000000    -2.48500    1.000000

  Constraints :

  Constraint no.      Unconstrained     Constrained    Coefficient    Offset
                         Variable         Variable
           1              Strain 1        Strain 2       1.00000      0.0000
           2              Strain 1        Strain 3       1.00000      0.0000

*  General input information                                                   *

  Species output for all configurations :

  Species    Type    Atomic    Atomic    Charge       Radii (Angs)     Library
                     Number     Mass       (e)     Cova   Ionic  VDW   Symbol
    Na       Core       11      22.99  -1.128000   0.970  0.000  2.300
    Na       Shell      11       0.00   2.128000   0.970  0.000  2.300
    Cl       Core       17      35.45   1.485000   0.990  0.000  1.650
    Cl       Shell      17       0.00  -2.485000   0.990  0.000  1.650

  Lattice summation method               =    Ewald          (3-D)
                                         =    Parry          (2-D)
                                         =    Saunders et al (1-D)
  Accuracy factor for lattice sums       =   12.000

  Analytic derivatives to be used

  Time limit = Infinity

  Maximum range for interatomic potentials =    100000.000000 Angstroms

  General interatomic potentials :

Atom  Types   Potential      Parameter       Value         Units   Cutoffs(Ang)
  1     2                                                            Min /  Max
Na   s Na   s Buckingham    Buckingham A     7895.0000    eV        0.000 12.000
                            Buckingham rho  0.17090000    Ang
                            Buckingham C     14.530000    eV*Ang^6
Na   s Cl   s Buckingham    Buckingham A     2314.7000    eV        0.000 12.000
                            Buckingham rho  0.29030000    Ang
                            Buckingham C     0.0000000    eV*Ang^6
Cl   s Cl   s Buckingham    Buckingham A     1227.2000    eV        0.000 12.000
                            Buckingham rho  0.32140000    Ang
                            Buckingham C     14.530000    eV*Ang^6
Na   c Na   s Spring (c-s)  Spring k 2       96.440000    eV*Ang^-2 0.000  0.800
                            Spring k 4       0.0000000    eV*Ang^-4
Cl   c Cl   s Spring (c-s)  Spring k 2       29.380000    eV*Ang^-2 0.000  0.800
                            Spring k 4       0.0000000    eV*Ang^-4

*  Output for configuration   1 : NaCl                                         *

  Components of energy :

  Interatomic potentials     =           0.91447856 eV
  Monopole - monopole (real) =          -0.72412017 eV
  Monopole - monopole (recip)=          -8.29865070 eV
  Monopole - monopole (total)=          -9.02277087 eV
  Total lattice energy :
    Primitive unit cell      =          -8.10829230 eV
    Non-primitive unit cell  =         -32.43316921 eV
  Total lattice energy (in kJmol-1):
    Primitive unit cell      =            -782.3263 kJ/(mole unit cells)
    Non-primitive unit cell  =           -3129.3050 kJ/(mole unit cells)

  Number of variables =        1

  Maximum number of calculations  =          1000
  Maximum Hessian update interval =            10
  Maximum step size               =   1.000000000
  Maximum parameter tolerance     =   0.000010000
  Maximum function  tolerance     =   0.000010000
  Maximum gradient  tolerance     =   0.001000000
  Maximum gradient  component     =   0.010000000

  Symmetry constrained optimisation

  Symmetry used for second derivatives

  Cell parameters to be optimised using strains

  Newton-Raphson optimiser to be used

  BFGS hessian update to be used

  Lower half triangular hessian to be used

  Start of bulk optimisation :

  ** Hessian calculated **

  **** Optimisation achieved ****

  Final energy =      -8.10831952 eV
  Final Gnorm  =       0.00000017

  Components of energy :

  Interatomic potentials     =           0.90655178 eV
  Monopole - monopole (real) =          -0.72348619 eV
  Monopole - monopole (recip)=          -8.29138511 eV
  Monopole - monopole (total)=          -9.01487130 eV
  Total lattice energy :
    Primitive unit cell      =          -8.10831952 eV
    Non-primitive unit cell  =         -32.43327809 eV
  Total lattice energy (in kJmol-1):
    Primitive unit cell      =            -782.3289 kJ/(mole unit cells)
    Non-primitive unit cell  =           -3129.3155 kJ/(mole unit cells)

  Final asymmetric unit coordinates :

   No.  Atomic        x           y           z         Radius
        Label       (Frac)      (Frac)      (Frac)       (Angs)
     1  Na    c     0.000000    0.000000    0.000000    0.000000
     2  Cl    c     0.500000    0.000000    0.000000    0.000000
     3  Na    s     0.000000    0.000000    0.000000    0.000000
     4  Cl    s     0.500000    0.000000    0.000000    0.000000

  Final Cartesian lattice vectors (Angstroms) :

        0.000000    2.791444    2.791444
        2.791444    0.000000    2.791444
        2.791444    2.791444    0.000000

  Final cell parameters and derivatives :

       a            3.947698 Angstrom     dE/de1(xx)    -0.000000 eV/strain
       b            3.947698 Angstrom     dE/de2(yy)     0.000000 eV/strain
       c            3.947698 Angstrom     dE/de3(zz)     0.000000 eV/strain
       alpha       60.000000 Degrees      dE/de4(yz)     0.000000 eV/strain
       beta        60.000000 Degrees      dE/de5(xz)     0.000000 eV/strain
       gamma       60.000000 Degrees      dE/de6(xy)     0.000000 eV/strain

  Primitive cell volume =            43.502752 Angs**3

  Density of cell =      2.230743 g/cm**3

  Non-primitive lattice parameters :

  a    =     5.582888  b   =     5.582888  c    =     5.582888
  alpha=    90.000000  beta=    90.000000  gamma=    90.000000

  Non-primitive cell volume =           174.011008 Angs**3

  Final internal derivatives :

   No.  Atomic          a             b             c           Radius
        Label          (eV)          (eV)          (eV)        (eV/Angs)
      1 Na    c       0.000000      0.000000      0.000000      0.000000
      2 Cl    c       0.000000      0.000000      0.000000      0.000000
      3 Na    s       0.000000      0.000000      0.000000      0.000000
      4 Cl    s       0.000000      0.000000      0.000000      0.000000
  Maximum abs         0.000000      0.000000      0.000000      0.000000

  Born effective charge tensors :

  Atom             x           y             z
    1 Na    x       1.0608      0.0000      0.0000
            y       0.0000      1.0608      0.0000
            z       0.0000      0.0000      1.0608
    2 Cl    x      -1.0608     -0.0000     -0.0000
            y      -0.0000     -1.0608     -0.0000
            z      -0.0000     -0.0000     -1.0608

  Elastic Constant Matrix: (Units=GPa)

  Indices      1         2         3         4         5         6
       1     58.2962   14.2997   14.2997   -0.0000    0.0000   -0.0000
       2     14.2997   58.2962   14.2997    0.0000    0.0000   -0.0000
       3     14.2997   14.2997   58.2962    0.0000    0.0000   -0.0000
       4     -0.0000    0.0000    0.0000   14.2997    0.0000   -0.0000
       5      0.0000    0.0000    0.0000    0.0000   14.2997   -0.0000
       6     -0.0000   -0.0000   -0.0000   -0.0000   -0.0000   14.2997

  Elastic Compliance Matrix: (Units=1/GPa)

  Indices      1         2         3         4         5         6
       1    0.018989 -0.003740 -0.003740  0.000000 -0.000000 -0.000000
       2   -0.003740  0.018989 -0.003740 -0.000000 -0.000000  0.000000
       3   -0.003740 -0.003740  0.018989 -0.000000 -0.000000  0.000000
       4    0.000000 -0.000000 -0.000000  0.069931 -0.000000  0.000000
       5   -0.000000 -0.000000 -0.000000 -0.000000  0.069931  0.000000
       6   -0.000000  0.000000  0.000000  0.000000  0.000000  0.069931

  Mechanical properties :

  Convention :                    Reuss         Voigt         Hill
  Bulk  Modulus (GPa)     =      28.96523      28.96523      28.96523
  Shear Modulus (GPa)     =      16.62729      17.37914      17.00321
  Velocity S-wave (km/s)  =       2.73015       2.79119       2.76084
  Velocity P-wave (km/s)  =       4.78778       4.83448       4.81119
  Compressibility (1/GPa) =    0.03452416
  Stress axis :                     x             y             z
  Youngs Moduli (GPa)     =      52.66277      52.66277      52.66277
  Poissons Ratio (x)      =                     0.19698       0.19698
  Poissons Ratio (y)      =       0.19698                     0.19698
  Poissons Ratio (z)      =       0.19698       0.19698

  Piezoelectric Strain Matrix: (Units=C/m**2)

  Indices      1         2         3         4         5         6
       x    -0.00000  -0.00000  -0.00000  -0.00000  -0.00000  -0.00000
       y    -0.00000   0.00000  -0.00000  -0.00000  -0.00000  -0.00000
       z    -0.00000  -0.00000   0.00000  -0.00000  -0.00000  -0.00000

  Piezoelectric Stress Matrix: (Units=10**-11 C/N)

  Indices      1         2         3         4         5         6
       x    -0.00000  -0.00000  -0.00000  -0.00000  -0.00000  -0.00000
       y    -0.00000   0.00000  -0.00000  -0.00000  -0.00000  -0.00000
       z    -0.00000  -0.00000   0.00000  -0.00000  -0.00000  -0.00000

  Static dielectric constant tensor :

              x         y         z
       x     5.49480   0.00000   0.00000
       y     0.00000   5.49480  -0.00000
       z     0.00000  -0.00000   5.49480

[...]
    24  Na    c     2.797860    2.797860    5.619141   -1.128000
    25  Na    c    -2.783308   -2.783308    5.578780   -1.128000
    26  Na    c     5.519008    2.801887    2.720342   -1.128000
    27  Na    c    -2.785550   -5.574681    2.790084   -1.128000
    28  Na    c    -5.575294    2.794877   -2.794658   -1.128000
    29  Na    c    -2.772577    5.576861   -2.779105   -1.128000
    30  Na    c     5.520285    5.520285    0.000000   -1.128000
    31  Na    c    -5.575760   -5.575760    0.000000   -1.128000
    32  Na    c     5.573138    0.021336    5.563873   -1.128000
    33  Na    c     0.005558   -5.570126    5.576264   -1.128000
    34  Na    c    -5.568515    5.585235    0.000000   -1.128000
    35  Cl    c     5.594934    5.594934    2.806053    1.485000
    36  Cl    c    -5.590831   -5.590831    2.792948    1.485000
    37  Cl    c    -0.005790   -0.005790    8.384531    1.485000
    38  Cl    c    -0.023397    8.390513    0.000000    1.485000
    39  Cl    c    -8.384758   -0.004653    0.000000    1.485000
    40  Cl    c    -5.598790    5.585348   -2.794456    1.485000
    41  Cl    c     5.601324    2.788396    5.609154    1.485000
    42  Cl    c    -2.795388   -5.592213    5.588716    1.485000
    43  Cl    c    -5.596960    2.789189   -5.593526    1.485000
    44  Cl    c    -2.798733    5.589538   -5.593855    1.485000
    45  Na    c     2.792145    0.000306    8.358956   -1.128000
    46  Na    c     0.005116   -2.782808    8.361159   -1.128000
    47  Na    c     2.795282    8.390065    0.000000   -1.128000
    48  Na    c    -8.363992   -2.786791    0.000000   -1.128000
    49  Na    c     0.022200    8.356909   -2.776916   -1.128000
    50  Na    c    -8.362151    0.003050   -2.788489   -1.128000
    51  Na    c    -2.774054    8.361090    0.000000   -1.128000
    52  Na    c    -8.366044    2.791152    0.000000   -1.128000
    53  Cl    c     2.794900    8.399413   -2.817865    1.485000
    54  Cl    c    -8.387437   -2.798324   -2.796171    1.485000
    55  Cl    c    -8.391850    2.792376   -2.796361    1.485000
    56  Cl    c    -2.805121    8.385947   -2.804040    1.485000
    57  Cl    c     2.793563   -2.804894    8.391808    1.485000
    58  Cl    c     2.789518    2.789518    8.408552    1.485000
    59  Cl    c    -2.800280   -2.800280    8.386471    1.485000
    60  Na    c     5.564179    5.564179    5.559151   -1.128000
    61  Na    c    -5.570630   -5.570630    5.573400   -1.128000
    62  Na    c    -5.564289    5.574653   -5.570047   -1.128000
    63  Na    s     0.077416    0.077416    0.000000    2.128000
    64  Cl    s    -2.827693   -0.028557    0.000000   -2.485000
    65  Cl    s    -0.216401    2.785113    0.000000   -2.485000
    66  Cl    s    -0.014351   -0.014351    2.801598   -2.485000
    67  Na    s    -2.777078   -2.777078    0.000000    2.128000
    68  Na    s     2.796851    0.081626    2.715124    2.128000
    69  Na    s     0.018588   -2.770849    2.776328    2.128000
    70  Na    s    -2.821290    2.794661    0.000000    2.128000
    71  Cl    s     2.790425    2.790425    3.005739   -2.485000
    72  Cl    s    -2.804900   -2.804900    2.801061   -2.485000
    73  Cl    s    -2.831440    2.791041   -2.818493   -2.485000
    74  Na    s     0.018080    0.018080    5.562180    2.128000
    75  Na    s     0.078823    5.507804    0.000000    2.128000
    76  Na    s    -5.569969   -0.000509    0.000000    2.128000
    77  Cl    s     2.781065    5.775704    0.000000   -2.485000
    78  Cl    s    -5.597822   -2.802746    0.000000   -2.485000
    79  Cl    s     2.785798   -0.029229    5.615181   -2.485000
    80  Cl    s    -0.010132   -2.801520    5.591455   -2.485000
    81  Cl    s    -5.598657   -0.006997   -2.793980   -2.485000
    82  Cl    s    -0.016371    5.589924   -2.801768   -2.485000
    83  Cl    s    -5.614961    2.785737    0.000000   -2.485000
    84  Cl    s    -2.826607    5.602220    0.000000   -2.485000
    85  Na    s     2.796655   -2.776991    5.572114    2.128000
    86  Na    s     2.798207    2.798207    5.613617    2.128000
    87  Na    s    -2.782637   -2.782637    5.578177    2.128000
    88  Na    s     5.517172    2.802285    2.718214    2.128000
    89  Na    s    -2.785068   -5.573860    2.789936    2.128000
    90  Na    s    -5.573806    2.795077   -2.794618    2.128000
    91  Na    s    -2.771343    5.576457   -2.778526    2.128000
    92  Na    s     5.519198    5.519198    0.000000    2.128000
    93  Na    s    -5.575332   -5.575332    0.000000    2.128000
    94  Na    s     5.573026    0.022310    5.563152    2.128000
    95  Na    s     0.005901   -5.569548    5.576042    2.128000
    96  Na    s    -5.567308    5.585517    0.000000    2.128000
    97  Cl    s     5.594702    5.594702    2.810276   -2.485000
    98  Cl    s    -5.592585   -5.592585    2.794261   -2.485000
    99  Cl    s    -0.007638   -0.007638    8.387752   -2.485000
   100  Cl    s    -0.028979    8.399706    0.000000   -2.485000
   101  Cl    s    -8.387398   -0.005904    0.000000   -2.485000
   102  Cl    s    -5.603084    5.585283   -2.796370   -2.485000
   103  Cl    s     5.602991    2.787577    5.619944   -2.485000
   104  Cl    s    -2.797985   -5.594391    5.589690   -2.485000
   105  Cl    s    -5.600427    2.789143   -5.594737   -2.485000
   106  Cl    s    -2.804171    5.589932   -5.596657   -2.485000
   107  Na    s     2.792323    0.000598    8.357789    2.128000
   108  Na    s     0.005433   -2.782416    8.360612    2.128000
   109  Na    s     2.795975    8.385042    0.000000    2.128000
   110  Na    s    -8.363384   -2.786563    0.000000    2.128000
   111  Na    s     0.023170    8.356309   -2.776551    2.128000
   112  Na    s    -8.361466    0.003286   -2.788421    2.128000
   113  Na    s    -2.772897    8.360303    0.000000    2.128000
   114  Na    s    -8.365104    2.791262    0.000000    2.128000
   115  Cl    s     2.793143    8.409672   -2.821755   -2.485000
   116  Cl    s    -8.390450   -2.799789   -2.796976   -2.485000
   117  Cl    s    -8.395649    2.792246   -2.797243   -2.485000
   118  Cl    s    -2.809478    8.388422   -2.806032   -2.485000
   119  Cl    s     2.793440   -2.807110    8.395694   -2.485000
   120  Cl    s     2.789249    2.789249    8.411281   -2.485000
   121  Cl    s    -2.802248   -2.802248    8.388863   -2.485000
   122  Na    s     5.563718    5.563718    5.558031    2.128000
   123  Na    s    -5.570105   -5.570105    5.573042    2.128000
   124  Na    s    -5.563426    5.574450   -5.569554    2.128000

  Final derivatives for region 1 :

   No.  Atomic          x             y             z            Radius
        Label       (eV/Angs)     (eV/Angs)     (eV/Angs)       (eV/Angs)
     1  Na    c      -0.000337      0.000000      0.000000      0.000000
     2  Cl    c      -0.000024     -0.000203      0.000000      0.000000
     3  Cl    c      -0.001196      0.000031      0.000000      0.000000
     4  Cl    c      -0.000279      0.000000      0.000163      0.000000
     5  Na    c      -0.000003      0.000000      0.000000      0.000000
     6  Na    c       0.000042     -0.000792      0.000665      0.000000
     7  Na    c       0.000022      0.000045     -0.000034      0.000000
     8  Na    c       0.000265      0.000001      0.000000      0.000000
     9  Cl    c       0.000001      0.000000      0.001240      0.000000
    10  Cl    c      -0.000077      0.000000      0.000028      0.000000
    11  Cl    c      -0.000022     -0.000020     -0.000448      0.000000
    12  Na    c       0.000038      0.000000     -0.000010      0.000000
    13  Na    c      -0.000318      0.000287      0.000000      0.000000
    14  Na    c       0.000111     -0.000002      0.000000      0.000000
    15  Cl    c       0.000019      0.001257      0.000000      0.000000
    16  Cl    c      -0.000046     -0.000042      0.000000      0.000000
    17  Cl    c      -0.000038     -0.000435      0.000083      0.000000
    18  Cl    c      -0.000054     -0.000077      0.000074      0.000000
    19  Cl    c      -0.000118     -0.000067     -0.000055      0.000000
    20  Cl    c      -0.000261      0.000320     -0.000317      0.000000
    21  Cl    c      -0.000265      0.000005      0.000000      0.000000
    22  Cl    c      -0.000055      0.000213      0.000000      0.000000
    23  Na    c      -0.000010      0.000011      0.000025      0.000000
    24  Na    c       0.000005      0.000000     -0.000383      0.000000
    25  Na    c       0.000034      0.000000     -0.000013      0.000000
    26  Na    c       0.000708      0.000009      0.000541      0.000000
    27  Na    c       0.000035      0.000045     -0.000018      0.000000
    28  Na    c       0.000242     -0.000002      0.000001      0.000000
    29  Na    c       0.000093     -0.000029      0.000059      0.000000
    30  Na    c       0.000171      0.000000      0.000000      0.000000
    31  Na    c       0.000019      0.000000      0.000000      0.000000
    32  Na    c      -0.000030      0.000039     -0.000081      0.000000
    33  Na    c       0.000013      0.000054     -0.000027      0.000000
    34  Na    c       0.000134      0.000001      0.000000      0.000000
    35  Cl    c       0.000370      0.000000      0.000147      0.000000
    36  Cl    c      -0.000051      0.000000      0.000009      0.000000
    37  Cl    c      -0.000068      0.000000      0.000058      0.000000
    38  Cl    c      -0.000179      0.000052      0.000000      0.000000
    39  Cl    c      -0.000058     -0.000009      0.000000      0.000000
    40  Cl    c      -0.000114      0.000065     -0.000062      0.000000
    41  Cl    c       0.000452     -0.000038      0.000090      0.000000
    42  Cl    c      -0.000046     -0.000051      0.000043      0.000000
    43  Cl    c      -0.000092     -0.000005     -0.000091      0.000000
    44  Cl    c      -0.000088      0.000048     -0.000085      0.000000
    45  Na    c      -0.000005     -0.000003     -0.000234      0.000000
    46  Na    c       0.000007      0.000039     -0.000049      0.000000
    47  Na    c      -0.000043     -0.000400      0.000000      0.000000
    48  Na    c       0.000034      0.000009      0.000000      0.000000
    49  Na    c       0.000013     -0.000069      0.000051      0.000000
    50  Na    c       0.000089      0.000005      0.000010      0.000000
    51  Na    c       0.000027      0.000002      0.000000      0.000000
    52  Na    c       0.000075     -0.000004      0.000000      0.000000
    53  Cl    c       0.000007      0.000158     -0.000371      0.000000
    54  Cl    c      -0.000065     -0.000042     -0.000023      0.000000
    55  Cl    c      -0.000129      0.000007     -0.000018      0.000000
    56  Cl    c      -0.000085      0.000117     -0.000065      0.000000
    57  Cl    c       0.000010     -0.000094      0.000096      0.000000
    58  Cl    c       0.000037      0.000000      0.000258      0.000000
    59  Cl    c      -0.000050      0.000000      0.000032      0.000000
    60  Na    c      -0.000027      0.000000     -0.000055      0.000000
    61  Na    c       0.000018      0.000000     -0.000004      0.000000
    62  Na    c       0.000053      0.000001      0.000018      0.000000
    63  Na    s      -0.000122      0.000000      0.000000      0.000000
    64  Cl    s       0.000388      0.000324      0.000000      0.000000
    65  Cl    s       0.003097      0.000024      0.000000      0.000000
    66  Cl    s       0.000466      0.000000     -0.000255      0.000000
    67  Na    s      -0.000007      0.000000      0.000000      0.000000
    68  Na    s      -0.000102     -0.000177      0.000087      0.000000
    69  Na    s      -0.000152     -0.000170      0.000141      0.000000
    70  Na    s      -0.001072     -0.000026      0.000000      0.000000
    71  Cl    s       0.000103      0.000000     -0.002777      0.000000
    72  Cl    s       0.000172      0.000000     -0.000043      0.000000
    73  Cl    s       0.000857      0.000014      0.000684      0.000000
    74  Na    s      -0.000149      0.000000      0.000059      0.000000
    75  Na    s      -0.000096      0.000018      0.000000      0.000000
    76  Na    s      -0.000089     -0.000024      0.000000      0.000000
    77  Cl    s       0.000068     -0.002558      0.000000      0.000000
    78  Cl    s       0.000070      0.000062      0.000000      0.000000
    79  Cl    s       0.000033      0.000683     -0.000716      0.000000
    80  Cl    s       0.000087      0.000152     -0.000138      0.000000
    81  Cl    s       0.000204      0.000114      0.000096      0.000000
    82  Cl    s       0.000456     -0.000478      0.000490      0.000000
    83  Cl    s       0.000210      0.000005      0.000000      0.000000
    84  Cl    s       0.000382     -0.000318      0.000000      0.000000
    85  Na    s      -0.000003     -0.000023     -0.000005      0.000000
    86  Na    s      -0.000077      0.000000      0.000817      0.000000
    87  Na    s      -0.000071      0.000000      0.000031      0.000000
    88  Na    s      -0.000108     -0.000092      0.000179      0.000000
    89  Na    s      -0.000074     -0.000092      0.000045      0.000000
    90  Na    s      -0.000187     -0.000005     -0.000045      0.000000
    91  Na    s      -0.000232      0.000131     -0.000185      0.000000
    92  Na    s      -0.000034      0.000000      0.000000      0.000000
    93  Na    s      -0.000026      0.000000      0.000000      0.000000
    94  Na    s       0.000121     -0.000170      0.000152      0.000000
    95  Na    s      -0.000042     -0.000082      0.000061      0.000000
    96  Na    s      -0.000088      0.000017      0.000000      0.000000
    97  Cl    s      -0.000566      0.000000     -0.000208      0.000000
    98  Cl    s       0.000092      0.000000     -0.000014      0.000000
    99  Cl    s       0.000109      0.000000     -0.000117      0.000000
   100  Cl    s       0.000282     -0.000365      0.000000      0.000000
   101  Cl    s       0.000075      0.000019      0.000000      0.000000
   102  Cl    s       0.000225     -0.000117      0.000098      0.000000
   103  Cl    s      -0.000702      0.000017     -0.000803      0.000000
   104  Cl    s       0.000066      0.000097     -0.000073      0.000000
   105  Cl    s       0.000160      0.000000      0.000146      0.000000
   106  Cl    s       0.000168     -0.000081      0.000176      0.000000
   107  Na    s       0.000001     -0.000050      0.000177      0.000000
   108  Na    s      -0.000042     -0.000070      0.000080      0.000000
   109  Na    s       0.000020      0.000697      0.000000      0.000000
   110  Na    s      -0.000036     -0.000020      0.000000      0.000000
   111  Na    s      -0.000164      0.000142     -0.000140      0.000000
   112  Na    s      -0.000091     -0.000026     -0.000027      0.000000
   113  Na    s      -0.000019      0.000004      0.000000      0.000000
   114  Na    s      -0.000016      0.000003      0.000000      0.000000
   115  Cl    s      -0.000040     -0.000802      0.000568      0.000000
   116  Cl    s       0.000117      0.000068      0.000039      0.000000
   117  Cl    s       0.000147     -0.000011      0.000039      0.000000
   118  Cl    s       0.000214     -0.000210      0.000099      0.000000
   119  Cl    s      -0.000015      0.000135     -0.000167      0.000000
   120  Cl    s      -0.000036      0.000000     -0.000199      0.000000
   121  Cl    s       0.000083      0.000000     -0.000056      0.000000
   122  Na    s       0.000124      0.000000      0.000079      0.000000
   123  Na    s      -0.000033      0.000000      0.000010      0.000000
   124  Na    s      -0.000067      0.000019     -0.000045      0.000000

  Time to end of optimisation  =        3.3395 seconds

  Timing analysis for GULP :

  Task / Subroutine                                          Time (Seconds)
  Calculation of reciprocal space energy and derivatives          0.0004
  Calculation of reciprocal space energy using symmetry           0.0004
  Calculation of real space energy and derivatives                0.0020
  Calculation of real space energy using symmetry                 0.0090
  Calculation for region 1 energy and derivatives (2-b)           1.0354
  Calculation for region 2a energy                                2.0697
  Calculation for region 2b energy                                0.0012
  Calculation and manipulation of Hessian matrix                  0.1650
  Calculation of matrix inversion                                 0.0110
  Symmetry generation of equivalent positions                     0.0026

  Dump file written as NaCl.grs

  Job Finished at 19:10.09  4th October    2020