  Job Started  at 12:18.51 14th October    2020

  Number of CPUs =     1

  Total number of configurations input =      1

*  Input for Configuration =   1 : ZrO2                                        *

  Formula = ZrO2

  Number of irreducible atoms/shells =       4

  Total number atoms/shells =       6

  Dimensionality = 3               :  Bulk

  Symmetry :

  Crystal family                   :  Cubic
  Crystal class  (Groth - 1921)    :  Cubic Hexakisoctahedral

  Space group (centrosymmetric)    :  F M 3 M

  Patterson group                  :  F m -3 m

  Cartesian lattice vectors (Angstroms) :

        0.000000    2.535000    2.535000
        2.535000    0.000000    2.535000
        2.535000    2.535000    0.000000

  Primitive cell parameters :            Full cell parameters :

  a =   3.5850    alpha =  60.0000       a =   5.0700    alpha =  90.0000
  b =   3.5850    beta  =  60.0000       b =   5.0700    beta  =  90.0000
  c =   3.5850    gamma =  60.0000       c =   5.0700    gamma =  90.0000

  Initial volumes (Angstroms**3):

  Primitive cell =          32.580961    Full cell =         130.323843

  Temperature of configuration =   0.00     K

  Pressure of configuration =         0.000 GPa

  Fractional coordinates of asymmetric unit :

   No.  Atomic       x           y          z         Charge      Occupancy
        Label      (Frac)      (Frac)     (Frac)        (e)         (Frac)
      1 Zr    c    0.000000    0.000000    0.000000     2.65000    1.000000
      2 O     c    0.250000    0.250000    0.250000     0.07700    1.000000
      3 Zr    s    0.000000    0.000000    0.000000     1.35000    1.000000
      4 O     s    0.250000    0.250000    0.250000    -2.07700    1.000000

  Constraints :

  Constraint no.      Unconstrained     Constrained    Coefficient    Offset
                         Variable         Variable
           1              Strain 1        Strain 2       1.00000      0.0000
           2              Strain 1        Strain 3       1.00000      0.0000

  Distance calculation :

  Cutoff for distances  =      4.000000 Angstroms

  Asymmetric unit site  Full lattice sites    No.  Distance      No.  Distance
      No.   At.No.            At.No.                (Angs)             (Angs)
       1   Zr    core        Zr    core        12    3.5850
                             Zr    shell       12    3.5850
                             O     core         8    2.1954
                             O     shell        8    2.1954
       2   O     core        Zr    core         4    2.1954
                             Zr    shell        4    2.1954
                             O     core         6    2.5350       12    3.5850
                             O     shell        6    2.5350       12    3.5850
       3   Zr    shell       Zr    core        12    3.5850
                             Zr    shell       12    3.5850
                             O     core         8    2.1954
                             O     shell        8    2.1954
       4   O     shell       Zr    core         4    2.1954
                             Zr    shell        4    2.1954
                             O     core         6    2.5350       12    3.5850
                             O     shell        6    2.5350       12    3.5850

*  General input information                                                   *

  Species output for all configurations :

  Species    Type    Atomic    Atomic    Charge       Radii (Angs)     Library
                     Number     Mass       (e)     Cova   Ionic  VDW   Symbol
    Zr       Core       40      91.22   2.650000   1.560  0.000  2.330
    Zr       Shell      40       0.00   1.350000   1.560  0.000  2.330
    O        Core        8      16.00   0.077000   0.730  0.000  1.360
    O        Shell       8       0.00  -2.077000   0.730  0.000  1.360

  Lattice summation method               =    Ewald          (3-D)
                                         =    Parry          (2-D)
                                         =    Saunders et al (1-D)
  Accuracy factor for lattice sums       =   12.000

  Analytic derivatives to be used

  Time limit = Infinity

  Maximum range for interatomic potentials =    100000.000000 Angstroms

  General interatomic potentials :

Atom  Types   Potential      Parameter       Value         Units   Cutoffs(Ang)
  1     2                                                            Min /  Max
O    s Zr   s Buckingham    Buckingham A     985.86900    eV        0.000 12.000
                            Buckingham rho  0.37600000    Ang
                            Buckingham C     0.0000000    eV*Ang^6
O    s O    s Buckingham    Buckingham A     22764.300    eV        0.000 12.000
                            Buckingham rho  0.14900000    Ang
                            Buckingham C     27.890000    eV*Ang^6
Zr   c Zr   s Spring (c-s)  Spring k 2       169.61700    eV*Ang^-2 0.000  0.800
                            Spring k 4       0.0000000    eV*Ang^-4
O    c O    s Spring (c-s)  Spring k 2       27.290000    eV*Ang^-2 0.000  0.800
                            Spring k 4       0.0000000    eV*Ang^-4

*  Output for configuration   1 : ZrO2                                         *

  Components of energy :

  Interatomic potentials     =          22.43756329 eV
  Monopole - monopole (real) =         -15.67991073 eV
  Monopole - monopole (recip)=        -116.52038266 eV
  Monopole - monopole (total)=        -132.20029339 eV
  Total lattice energy :
    Primitive unit cell      =        -109.76273010 eV
    Non-primitive unit cell  =        -439.05092039 eV
  Total lattice energy (in kJmol-1):
    Primitive unit cell      =          -10590.4256 kJ/(mole unit cells)
    Non-primitive unit cell  =          -42361.7023 kJ/(mole unit cells)

  Number of variables =        1

  Maximum number of calculations  =          1000
  Maximum Hessian update interval =            10
  Maximum step size               =   1.000000000
  Maximum parameter tolerance     =   0.000010000
  Maximum function  tolerance     =   0.000010000
  Maximum gradient  tolerance     =   0.001000000
  Maximum gradient  component     =   0.010000000

  Symmetry constrained optimisation

  Symmetry used for second derivatives

  Cell parameters to be optimised using strains

  Newton-Raphson optimiser to be used

  BFGS hessian update to be used

  Lower half triangular hessian to be used

  Start of bulk optimisation :

  ** Hessian calculated **

  **** Optimisation achieved ****

  Final energy =    -109.76305939 eV
  Final Gnorm  =       0.00000099

  Components of energy :

  Interatomic potentials     =          22.28919976 eV
  Monopole - monopole (real) =         -15.66235280 eV
  Monopole - monopole (recip)=        -116.38990634 eV
  Monopole - monopole (total)=        -132.05225914 eV
  Total lattice energy :
    Primitive unit cell      =        -109.76305939 eV
    Non-primitive unit cell  =        -439.05223754 eV
  Total lattice energy (in kJmol-1):
    Primitive unit cell      =          -10590.4573 kJ/(mole unit cells)
    Non-primitive unit cell  =          -42361.8294 kJ/(mole unit cells)

  Final asymmetric unit coordinates :

   No.  Atomic        x           y           z         Radius
        Label       (Frac)      (Frac)      (Frac)       (Angs)
     1  Zr    c     0.000000    0.000000    0.000000    0.000000
     2  O     c     0.250000    0.250000    0.250000    0.000000
     3  Zr    s     0.000000    0.000000    0.000000    0.000000
     4  O     s     0.250000    0.250000    0.250000    0.000000

  Final Cartesian lattice vectors (Angstroms) :

        0.000000    2.537842    2.537842
        2.537842    0.000000    2.537842
        2.537842    2.537842    0.000000

  Final cell parameters and derivatives :

       a            3.589050 Angstrom     dE/de1(xx)    -0.000001 eV/strain
       b            3.589050 Angstrom     dE/de2(yy)     0.000000 eV/strain
       c            3.589050 Angstrom     dE/de3(zz)     0.000000 eV/strain
       alpha       60.000000 Degrees      dE/de4(yz)     0.000000 eV/strain
       beta        60.000000 Degrees      dE/de5(xz)     0.000000 eV/strain
       gamma       60.000000 Degrees      dE/de6(xy)     0.000000 eV/strain

  Primitive cell volume =            32.690656 Angs**3

  Density of cell =      6.259124 g/cm**3

  Non-primitive lattice parameters :

  a    =     5.075684  b   =     5.075684  c    =     5.075684
  alpha=    90.000000  beta=    90.000000  gamma=    90.000000

  Non-primitive cell volume =           130.762624 Angs**3

  Final internal derivatives :

   No.  Atomic          a             b             c           Radius
        Label          (eV)          (eV)          (eV)        (eV/Angs)
      1 Zr    c       0.000000      0.000000      0.000000      0.000000
      2 O     c       0.000000      0.000000      0.000000      0.000000
      3 Zr    s       0.000000      0.000000      0.000000      0.000000
      4 O     s       0.000000      0.000000      0.000000      0.000000
  Maximum abs         0.000000      0.000000      0.000000      0.000000

  Comparison of initial and final structures :

  Parameter   Initial value   Final value   Difference    Units      Percent
    Volume       130.323843    130.762624     0.438781    Angs**3      0.34
    a              5.070000      5.075684     0.005684    Angstroms    0.11
    b              5.070000      5.075684     0.005684    Angstroms    0.11
    c              5.070000      5.075684     0.005684    Angstroms    0.11
    alpha         90.000000     90.000000     0.000000    Degrees      0.00
    beta          90.000000     90.000000     0.000000    Degrees      0.00
    gamma         90.000000     90.000000     0.000000    Degrees      0.00
      1 x          0.000000      0.000000     0.000000    Fractional   0.00
      1 y          0.000000      0.000000     0.000000    Fractional   0.00
      1 z          0.000000      0.000000     0.000000    Fractional   0.00
      2 x          0.250000      0.250000     0.000000    Fractional   0.00
      2 y          0.250000      0.250000     0.000000    Fractional   0.00
      2 z          0.250000      0.250000     0.000000    Fractional   0.00
      3 x          0.000000      0.000000     0.000000    Fractional   0.00
      3 y          0.000000      0.000000     0.000000    Fractional   0.00
      3 z          0.000000      0.000000     0.000000    Fractional   0.00
      4 x          0.250000      0.250000     0.000000    Fractional   0.00
      4 y          0.250000      0.250000     0.000000    Fractional   0.00
      4 z          0.250000      0.250000     0.000000    Fractional   0.00

  Distance calculation :

  Cutoff for distances  =      4.000000 Angstroms

  Asymmetric unit site  Full lattice sites    No.  Distance      No.  Distance
      No.   At.No.            At.No.                (Angs)             (Angs)
       1   Zr    core        Zr    core        12    3.5891
                             Zr    shell       12    3.5891
                             O     core         8    2.1978
                             O     shell        8    2.1978
[...]
    335 z          3.806763      3.808679     0.001917    Cartesian    0.05
    336 x          3.806763      3.809728     0.002965    Cartesian    0.08
    336 y          1.268921      1.268329    -0.000592    Cartesian   -0.05
    336 z         11.420288     11.394906    -0.025382    Cartesian   -0.22
    337 x         10.151367     10.156526     0.005159    Cartesian    0.05
    337 y          2.537842      2.540559     0.002717    Cartesian    0.11
    337 z          7.613525      7.619470     0.005945    Cartesian    0.08
    338 x         -5.075684     -5.081442    -0.005759    Cartesian    0.11
    338 y         -5.075684     -5.079719    -0.004035    Cartesian    0.08
    338 z          5.075684      5.075031    -0.000653    Cartesian   -0.01
    339 x          8.882446      8.882889     0.000443    Cartesian    0.00
    339 y          8.882446      8.884843     0.002397    Cartesian    0.03
    339 z         -1.268921     -1.267300     0.001621    Cartesian   -0.13
    340 x          8.882446      8.887093     0.004646    Cartesian    0.05
    340 y          8.882446      8.874058    -0.008388    Cartesian   -0.09
    340 z          3.806763      3.804809    -0.001953    Cartesian   -0.05
    341 x          1.268921      1.272714     0.003793    Cartesian    0.30
    341 y          3.806763      3.805552    -0.001210    Cartesian   -0.03
    341 z         11.420288     11.411134    -0.009154    Cartesian   -0.08
    342 x          1.268921      1.269021     0.000100    Cartesian    0.01
    342 y         -1.268921     -1.267829     0.001092    Cartesian   -0.09
    342 z         11.420288     11.426710     0.006422    Cartesian    0.06
    343 x          7.613525      7.612075    -0.001450    Cartesian   -0.02
    343 y          7.613525      7.621428     0.007902    Cartesian    0.10
    343 z         -5.075684     -5.083586    -0.007902    Cartesian    0.16
    344 x          7.613525      7.612360    -0.001165    Cartesian   -0.02
    344 y         10.151367     10.156713     0.005346    Cartesian    0.05
    344 z          2.537842      2.538660     0.000818    Cartesian    0.03
    345 x         -7.613525     -7.620988    -0.007462    Cartesian    0.10
    345 y         -0.000000      0.002618     0.002618    Cartesian *******
    345 z         -2.537842     -2.537568     0.000274    Cartesian   -0.01
    346 x         11.420288     11.417328    -0.002960    Cartesian   -0.03
    346 y          1.268921      1.276645     0.007725    Cartesian    0.61
    346 z         -3.806763     -3.805079     0.001683    Cartesian   -0.04
    347 x          3.806763      3.805470    -0.001293    Cartesian   -0.03
    347 y          3.806763      3.804884    -0.001879    Cartesian   -0.05
    347 z         11.420288     11.426400     0.006112    Cartesian    0.05
    348 x          3.806763      3.808565     0.001803    Cartesian    0.05
    348 y         -8.882446     -8.883473    -0.001026    Cartesian    0.01
    348 z          3.806763      3.804815    -0.001948    Cartesian   -0.05
    349 x         -1.268921     -1.265712     0.003209    Cartesian   -0.25
    349 y          1.268921      1.267507    -0.001413    Cartesian   -0.11
    349 z         11.420288     11.416511    -0.003777    Cartesian   -0.03
    350 x         12.689209     12.679620    -0.009589    Cartesian   -0.08
    350 y          2.537842      2.555947     0.018105    Cartesian    0.71
    350 z          0.000000     -0.018105    -0.018105    Cartesian *******
    351 x         -2.537842     -2.541942    -0.004101    Cartesian    0.16
    351 y         -7.613525     -7.617944    -0.004418    Cartesian    0.06
    351 z          5.075684      5.077522     0.001838    Cartesian    0.04
    352 x          1.268921      1.274928     0.006007    Cartesian    0.47
    352 y         -6.344605     -6.342726     0.001878    Cartesian   -0.03
    352 z          8.882446      8.880568    -0.001878    Cartesian   -0.02
    353 x          1.268921      1.268628    -0.000293    Cartesian   -0.02
    353 y          8.882446      8.880820    -0.001626    Cartesian   -0.02
    353 z          8.882446      8.880820    -0.001626    Cartesian   -0.02
    354 x         11.420288     11.412871    -0.007418    Cartesian   -0.06
    354 y          6.344605      6.349007     0.004403    Cartesian    0.07
    354 z          3.806763      3.806883     0.000120    Cartesian    0.00
    355 x         11.420288     11.418958    -0.001331    Cartesian   -0.01
    355 y          6.344605      6.338502    -0.006103    Cartesian   -0.10
    355 z         -1.268921     -1.268257     0.000664    Cartesian   -0.05
    356 x          3.806763      3.810285     0.003522    Cartesian    0.09
    356 y          8.882446      8.880186    -0.002260    Cartesian   -0.03
    356 z          8.882446      8.880186    -0.002260    Cartesian   -0.03
    357 x          3.806763      3.805498    -0.001265    Cartesian   -0.03
    357 y         -6.344605     -6.343508     0.001096    Cartesian   -0.02
    357 z          8.882446      8.881350    -0.001096    Cartesian   -0.01
    358 x         -3.806763     -3.805464     0.001298    Cartesian   -0.03
    358 y         -3.806763     -3.805897     0.000865    Cartesian   -0.02
    358 z          8.882446      8.879885    -0.002561    Cartesian   -0.03
    359 x         -3.806763     -3.807259    -0.000496    Cartesian    0.01
    359 y          6.344605      6.342142    -0.002463    Cartesian   -0.04
    359 z          8.882446      8.882754     0.000308    Cartesian    0.00
    360 x         10.151367     10.154809     0.003442    Cartesian    0.03
    360 y          5.075684      5.079246     0.003562    Cartesian    0.07
    360 z         -5.075684     -5.084646    -0.008963    Cartesian    0.18
    361 x          2.537842      2.536060    -0.001782    Cartesian   -0.07
    361 y         10.151367     10.158005     0.006638    Cartesian    0.07
    361 z          7.613525      7.616834     0.003308    Cartesian    0.04
    362 x          6.344605      6.347101     0.002496    Cartesian    0.04
    362 y          1.268921      1.265974    -0.002947    Cartesian   -0.23
    362 z         11.420288     11.406703    -0.013586    Cartesian   -0.12
    363 x         -1.268921     -1.267474     0.001447    Cartesian   -0.11
    363 y         -8.882446     -8.873908     0.008539    Cartesian   -0.10
    363 z          3.806763      3.804351    -0.002412    Cartesian   -0.06
    364 x         -1.268921     -1.267452     0.001469    Cartesian   -0.12
    364 y          3.806763      3.806381    -0.000382    Cartesian   -0.01
    364 z         11.420288     11.423852     0.003564    Cartesian    0.03
    365 x         -8.882446     -8.809227     0.073219    Cartesian   -0.82
    365 y          1.268921      1.268921     0.000000    Cartesian    0.00
    365 z          1.268921      1.268921     0.000000    Cartesian    0.00
    366 x         -6.344605     -6.335100     0.009505    Cartesian   -0.15
    366 y          6.344605      6.341963    -0.002641    Cartesian   -0.04
    366 z          6.344605      6.341963    -0.002641    Cartesian   -0.04
    367 x         -6.344605     -6.341275     0.003329    Cartesian   -0.05
    367 y         -3.806763     -3.806494     0.000269    Cartesian   -0.01
    367 z          6.344605      6.344336    -0.000269    Cartesian   -0.00
    368 x          7.613525      7.616917     0.003392    Cartesian    0.04
    368 y         10.151367     10.158560     0.007192    Cartesian    0.07
    368 z         -2.537842     -2.539467    -0.001625    Cartesian    0.06
    369 x          0.000000     -0.002373    -0.002373    Cartesian    0.00
    369 y          7.613525      7.617167     0.003642    Cartesian    0.05
    369 z         -7.613525     -7.619734    -0.006208    Cartesian    0.08
    370 x         -7.613525     -7.618384    -0.004859    Cartesian    0.06
    370 y         -2.537842     -2.544029    -0.006188    Cartesian    0.24
    370 z          5.075684      5.081871     0.006188    Cartesian    0.12
    371 x          6.344605      6.341945    -0.002659    Cartesian   -0.04
    371 y         11.420288     11.410241    -0.010047    Cartesian   -0.09
    371 z         -1.268921     -1.267686     0.001235    Cartesian   -0.10
    372 x          6.344605      6.343864    -0.000741    Cartesian   -0.01
    372 y         11.420288     11.420244    -0.000044    Cartesian   -0.00
    372 z          3.806763      3.802512    -0.004251    Cartesian   -0.11
    373 x         -1.268921     -1.264548     0.004372    Cartesian   -0.34
    373 y          8.882446      8.880845    -0.001602    Cartesian   -0.02
    373 z          8.882446      8.880845    -0.001602    Cartesian   -0.02
    374 x         -1.268921     -1.267226     0.001695    Cartesian   -0.13
    374 y         -6.344605     -6.342146     0.002459    Cartesian   -0.04
    374 z          8.882446      8.879987    -0.002459    Cartesian   -0.03
    375 x         12.689209     12.701960     0.012751    Cartesian    0.10
    375 y          5.075684      5.077617     0.001933    Cartesian    0.04
    375 z          2.537842      2.535144    -0.002697    Cartesian   -0.11
    376 x         -8.882446     -8.908178    -0.025732    Cartesian    0.29
    376 y         -1.268921     -1.263630     0.005291    Cartesian   -0.42
    376 z          1.268921      1.272475     0.003554    Cartesian    0.28
    377 x          5.075684      5.076374     0.000691    Cartesian    0.01
    377 y         10.151367     10.159890     0.008523    Cartesian    0.08
    377 z         -5.075684     -5.079880    -0.004196    Cartesian    0.08
    378 x          8.882446      8.882813     0.000367    Cartesian    0.00
    378 y          8.882446      8.877479    -0.004967    Cartesian   -0.06
    378 z         -3.806763     -3.805161     0.001602    Cartesian   -0.04
    379 x          8.882446      8.874956    -0.007490    Cartesian   -0.08
    379 y          8.882446      8.876050    -0.006396    Cartesian   -0.07
    379 z          6.344605      6.338100    -0.006504    Cartesian   -0.10
    380 x          1.268921      1.269585     0.000664    Cartesian    0.05
    380 y          6.344605      6.344163    -0.000441    Cartesian   -0.01
    380 z         11.420288     11.417374    -0.002914    Cartesian   -0.03
    381 x          1.268921      1.271367     0.002446    Cartesian    0.19
    381 y         -8.882446     -8.875045     0.007402    Cartesian   -0.08
    381 z          6.344605      6.342251    -0.002353    Cartesian   -0.04
    382 x         -6.344605     -6.345604    -0.001000    Cartesian    0.02
    382 y         -6.344605     -6.343089     0.001516    Cartesian   -0.02
    382 z          1.268921      1.267568    -0.001352    Cartesian   -0.11
    383 x          3.806763      3.805813    -0.000949    Cartesian   -0.02
    383 y          6.344605      6.341463    -0.003142    Cartesian   -0.05
    383 z         11.420288     11.410607    -0.009681    Cartesian   -0.08
    384 x          3.806763      3.807406     0.000643    Cartesian    0.02
    384 y         -3.806763     -3.805606     0.001157    Cartesian   -0.03
    384 z         11.420288     11.412962    -0.007326    Cartesian   -0.06
    385 x          2.537842      2.535729    -0.002113    Cartesian   -0.08
    385 y         -0.000000     -0.003918    -0.003918    Cartesian *******
    385 z         12.689209     12.697128     0.007919    Cartesian    0.06
    386 x         -5.075684     -5.080722    -0.005039    Cartesian    0.10
    386 y          7.613525      7.619967     0.006442    Cartesian    0.08
    386 z          7.613525      7.619967     0.006442    Cartesian    0.08
    387 x         -5.075684     -5.080864    -0.005181    Cartesian    0.10
    387 y         -7.613525     -7.620040    -0.006515    Cartesian    0.09
    387 z          2.537842      2.538184     0.000342    Cartesian    0.01
    388 x          6.344605      6.347412     0.002808    Cartesian    0.04
    388 y         -6.344605     -6.340986     0.003618    Cartesian   -0.06
    388 z          8.882446      8.878828    -0.003618    Cartesian   -0.04
    389 x          6.344605      6.339698    -0.004907    Cartesian   -0.08
    389 y          8.882446      8.873960    -0.008486    Cartesian   -0.10
    389 z          8.882446      8.873960    -0.008486    Cartesian   -0.10
    390 x         -8.882446     -8.859489     0.022957    Cartesian   -0.26
    390 y         -1.268921     -1.267649     0.001272    Cartesian   -0.10
    390 z         -1.268921     -1.267649     0.001272    Cartesian   -0.10
    391 x         -8.882446     -8.856197     0.026249    Cartesian   -0.30
    391 y         -1.268921     -1.269048    -0.000127    Cartesian    0.01
    391 z          3.806763      3.806889     0.000127    Cartesian    0.00
    392 x         -6.344605     -6.340525     0.004079    Cartesian   -0.06
    392 y         -1.268921     -1.269092    -0.000171    Cartesian    0.01
    392 z          8.882446      8.879196    -0.003250    Cartesian   -0.04
    393 x         -6.344605     -6.332910     0.011695    Cartesian   -0.18
    393 y          3.806763      3.802136    -0.004627    Cartesian   -0.12
    393 z          8.882446      8.876100    -0.006347    Cartesian   -0.07
    394 x          0.000000     -0.003297    -0.003297    Cartesian    0.00
    394 y          2.537842      2.539727     0.001885    Cartesian    0.07
    394 z         12.689209     12.698541     0.009332    Cartesian    0.07
    395 x         -7.613525     -7.623155    -0.009629    Cartesian    0.13
    395 y          2.537842      2.539825     0.001984    Cartesian    0.08
    395 z         -5.075684     -5.081175    -0.005491    Cartesian    0.11
    396 x         11.420288     11.413042    -0.007246    Cartesian   -0.06
    396 y         -3.806763     -3.798483     0.008279    Cartesian   -0.22
    396 z         -3.806763     -3.798483     0.008279    Cartesian   -0.22
    397 x         11.420288     11.425462     0.005174    Cartesian    0.05
    397 y          6.344605      6.343091    -0.001514    Cartesian   -0.02
    397 z         -3.806763     -3.805249     0.001514    Cartesian   -0.04
    398 x         -3.806763     -3.802178     0.004585    Cartesian   -0.12
    398 y         -8.882446     -8.873198     0.009248    Cartesian   -0.10
    398 z          1.268921      1.268446    -0.000475    Cartesian   -0.04
    399 x         13.958130     13.866988    -0.091142    Cartesian   -0.65
    399 y          1.268921      1.268921     0.000000    Cartesian    0.00
    399 z          1.268921      1.268921     0.000000    Cartesian    0.00
    400 x         -1.268921     -1.265751     0.003170    Cartesian   -0.25
    400 y         -3.806763     -3.804538     0.002225    Cartesian   -0.06
    400 z         11.420288     11.414074    -0.006214    Cartesian   -0.05
    401 x         -1.268921     -1.266145     0.002776    Cartesian   -0.22
    401 y          6.344605      6.341440    -0.003165    Cartesian   -0.05
    401 z         11.420288     11.410442    -0.009847    Cartesian   -0.09
    402 x         12.689209     12.699665     0.010456    Cartesian    0.08
    402 y          5.075684      5.086757     0.011074    Cartesian    0.22
    402 z         -2.537842     -2.548915    -0.011074    Cartesian    0.44
    403 x          5.075684      5.077083     0.001400    Cartesian    0.03
    403 y          2.537842      2.541961     0.004119    Cartesian    0.16
    403 z         12.689209     12.699022     0.009813    Cartesian    0.08
    404 x         -2.537842     -2.542713    -0.004871    Cartesian    0.19
    404 y         10.151367     10.158995     0.007628    Cartesian    0.08
    404 z          7.613525      7.618548     0.005022    Cartesian    0.07

  Time to end of optimisation  =      116.1549 seconds

  Timing analysis for GULP :

  Task / Subroutine                                          Time (Seconds)
  Calculation of reciprocal space energy and derivatives          0.0002
  Calculation of reciprocal space energy using symmetry           0.0002
  Calculation of real space energy and derivatives                0.0020
  Calculation of real space energy using symmetry                 0.0069
  Calculation for region 1 energy and derivatives (2-b)          29.4143
  Calculation for region 2a energy                               71.1593
  Calculation for region 2b energy                                0.0102
  Calculation and manipulation of Hessian matrix                 14.0942
  Calculation of matrix inversion                                 1.0322
  Symmetry generation of equivalent positions                     0.0015

  Dump file written as ZrO2.grs

  Job Finished at 12:20.47 14th October    2020