  Job Started  at 14:16.45 30th December   2020

  Number of CPUs =     1

  Total number of configurations input =      1

*  Input for Configuration =   1                                               *

  Formula = ClONa3

  Number of irreducible atoms/shells =       5

  Total number atoms/shells =       7

  Dimensionality = 3               :  Bulk

  Symmetry :

  Crystal family                   :  Cubic
  Crystal class  (Groth - 1921)    :  Cubic Hexakisoctahedral

  Space group (centrosymmetric)    :  P M 3 M

  Patterson group                  :  P m -3 m

  Cartesian lattice vectors (Angstroms) :

        4.504000    0.000000    0.000000
        0.000000    4.504000    0.000000
        0.000000    0.000000    4.504000

  Cell parameters (Angstroms/Degrees):

  a =       4.5040    alpha =  90.0000
  b =       4.5040    beta  =  90.0000
  c =       4.5040    gamma =  90.0000

  Initial cell volume =          91.368216 Angs**3

  Temperature of configuration =   0.00     K

  Pressure of configuration =         0.000 GPa

  Fractional coordinates of asymmetric unit :

   No.  Atomic       x           y          z         Charge      Occupancy
        Label      (Frac)      (Frac)     (Frac)        (e)         (Frac)
      1 Cl    c    0.000000    0.000000    0.000000     0.00000    1.000000
      2 O     c    0.500000    0.500000    0.500000     0.00000    1.000000
      3 Na    c    0.500000    0.500000    0.000000     0.00000    1.000000
      4 Cl    s    0.000000    0.000000    0.000000     0.00000    1.000000
      5 O     s    0.500000    0.500000    0.500000     0.00000    1.000000

  Constraints :

  Constraint no.      Unconstrained     Constrained    Coefficient    Offset
                         Variable         Variable
           1              Strain 1        Strain 2       1.00000      0.0000
           2              Strain 1        Strain 3       1.00000      0.0000

*  General input information                                                   *

  Species output for all configurations :

  Species    Type    Atomic    Atomic    Charge       Radii (Angs)     Library
                     Number     Mass       (e)     Cova   Ionic  VDW   Symbol
    Cl       Core       17      35.45   0.000000   0.990  0.000  1.650
    O        Core        8      16.00   0.000000   0.730  0.000  1.360
    Cl       Shell      17       0.00   0.000000   0.990  0.000  1.650
    O        Shell       8       0.00   0.000000   0.730  0.000  1.360
    Na       Core       11      22.99   0.000000   0.970  0.000  2.300

  Lattice summation method               =    Ewald          (3-D)
                                         =    Parry          (2-D)
                                         =    Saunders et al (1-D)
  Accuracy factor for lattice sums       =   12.000

  Analytic derivatives to be used

  Time limit = Infinity

*  Output for configuration   1                                                *

  Components of energy :

  Interatomic potentials     =           0.00000000 eV
  Monopole - monopole (real) =           0.00000000 eV
  Monopole - monopole (recip)=           0.00000000 eV
  Monopole - monopole (total)=           0.00000000 eV
  Total lattice energy       =           0.00000000 eV
  Total lattice energy       =               0.0000 kJ/(mole unit cells)

  Number of variables =        1

  Maximum number of calculations  =          1000
  Maximum Hessian update interval =            10
  Maximum step size               =   1.000000000
  Maximum parameter tolerance     =   0.000010000
  Maximum function  tolerance     =   0.000010000
  Maximum gradient  tolerance     =   0.001000000
  Maximum gradient  component     =   0.010000000

  Symmetry constrained optimisation

  Symmetry used for second derivatives

  Cell parameters to be optimised using strains

  Newton-Raphson optimiser to be used

  BFGS hessian update to be used

  Lower half triangular hessian to be used

  Start of bulk optimisation :

  **** Optimisation achieved ****

  Final energy =       0.00000000 eV
  Final Gnorm  =       0.00000000

  Components of energy :

  Interatomic potentials     =           0.00000000 eV
  Monopole - monopole (real) =           0.00000000 eV
  Monopole - monopole (recip)=           0.00000000 eV
  Monopole - monopole (total)=           0.00000000 eV
  Total lattice energy       =           0.00000000 eV
  Total lattice energy       =               0.0000 kJ/(mole unit cells)

  Final asymmetric unit coordinates :

   No.  Atomic        x           y           z         Radius
        Label       (Frac)      (Frac)      (Frac)       (Angs)
     1  Cl    c     0.000000    0.000000    0.000000    0.000000
     2  O     c     0.500000    0.500000    0.500000    0.000000
     3  Na    c     0.500000    0.500000    0.000000    0.000000
     4  Cl    s     0.000000    0.000000    0.000000    0.000000
     5  O     s     0.500000    0.500000    0.500000    0.000000

  Final Cartesian lattice vectors (Angstroms) :

        4.504000    0.000000    0.000000
        0.000000    4.504000    0.000000
        0.000000    0.000000    4.504000

  Final cell parameters and derivatives :

       a            4.504000 Angstrom     dE/de1(xx)     0.000000 eV/strain
       b            4.504000 Angstrom     dE/de2(yy)     0.000000 eV/strain
       c            4.504000 Angstrom     dE/de3(zz)     0.000000 eV/strain
       alpha       90.000000 Degrees      dE/de4(yz)     0.000000 eV/strain
       beta        90.000000 Degrees      dE/de5(xz)     0.000000 eV/strain
       gamma       90.000000 Degrees      dE/de6(xy)     0.000000 eV/strain

  Primitive cell volume =            91.368216 Angs**3

  Density of cell =      2.188565 g/cm**3

  Non-primitive cell volume =            91.368216 Angs**3

  Final internal derivatives :

   No.  Atomic          a             b             c           Radius
        Label          (eV)          (eV)          (eV)        (eV/Angs)
      1 Cl    c       0.000000      0.000000      0.000000      0.000000
      2 O     c       0.000000      0.000000      0.000000      0.000000
      3 Na    c       0.000000      0.000000      0.000000      0.000000
      4 Cl    s       0.000000      0.000000      0.000000      0.000000
      5 O     s       0.000000      0.000000      0.000000      0.000000
  Maximum abs         0.000000      0.000000      0.000000      0.000000

  Comparison of initial and final structures :

  Parameter   Initial value   Final value   Difference    Units      Percent
    Volume        91.368216     91.368216     0.000000    Angs**3      0.00
    a              4.504000      4.504000     0.000000    Angstroms    0.00
    b              4.504000      4.504000     0.000000    Angstroms    0.00
    c              4.504000      4.504000     0.000000    Angstroms    0.00
    alpha         90.000000     90.000000     0.000000    Degrees      0.00
    beta          90.000000     90.000000     0.000000    Degrees      0.00
    gamma         90.000000     90.000000     0.000000    Degrees      0.00
      1 x          0.000000      0.000000     0.000000    Fractional   0.00
      1 y          0.000000      0.000000     0.000000    Fractional   0.00
      1 z          0.000000      0.000000     0.000000    Fractional   0.00
      2 x          0.500000      0.500000     0.000000    Fractional   0.00
      2 y          0.500000      0.500000     0.000000    Fractional   0.00
      2 z          0.500000      0.500000     0.000000    Fractional   0.00
      3 x          0.500000      0.500000     0.000000    Fractional   0.00
      3 y          0.500000      0.500000     0.000000    Fractional   0.00
      3 z          0.000000      0.000000     0.000000    Fractional   0.00
      4 x          0.000000      0.000000     0.000000    Fractional   0.00
      4 y          0.000000      0.000000     0.000000    Fractional   0.00
      4 z          0.000000      0.000000     0.000000    Fractional   0.00
      5 x          0.500000      0.500000     0.000000    Fractional   0.00
      5 y          0.500000      0.500000     0.000000    Fractional   0.00
      5 z          0.500000      0.500000     0.000000    Fractional   0.00

!! WARNING : Properties cannot be calculated - matrix is singular

  Time to end of optimisation =       0.0039 seconds

*  Defect calculation for configuration   1 :                                  *

  Total number of defects =      1

  Total charge on defect  =   0.00

  Defect centre is at   0.5000   0.5000   0.0000  Frac

  Region 1 radius =  18.0000      Number of ions =   1834

  Number of symmetry inequivalent region 1 ions  =    176

  Region 2 radius =  24.0000      Number of ions =   2564

  Number of symmetry inequivalent region 2a ions =    208

  Region 2a mode = 4 : screened electrostatics due to region 1
                       neglect correction to region 1 forces from 2a
                       region 2a displacements based on defects only

  Region 2a ions will only interact with defects in region 1

  Vacancies:

    Specification type     Symbol/Number         x          y          z
    Fractional                               0.500000   0.500000   0.000000

  Symmetry reduced region 1 (Relative to defect centre) :

   No.   Atomic       x            y             z       Radius  Multiplicity
         Label      (Angs)       (Angs)        (Angs)    (Angs)
     1  O     c      0.0000       0.0000      -2.2520 *  0.0000     2
     2  Cl    c      2.2520 *     2.2520       0.0000    0.0000     4
     3  Na    c      2.2520 *     0.0000      -2.2520 *  0.0000     8
     4  Na    c      0.0000       0.0000       4.5040 *  0.0000     2
     5  Na    c      0.0000       4.5040 *     0.0000    0.0000     4
     6  O     c      0.0000       4.5040 *    -2.2520 *  0.0000     8
     7  Na    c      2.2520 *     4.5040 *    -2.2520 *  0.0000    16
     8  Cl    c      2.2520 *     2.2520       4.5040 *  0.0000     8
     9  Na    c      0.0000       4.5040 *     4.5040 *  0.0000     8
    10  Na    c      4.5040 *     4.5040       0.0000    0.0000     4
    11  O     c      0.0000       0.0000       6.7560 *  0.0000     2
    12  O     c      4.5040 *     4.5040      -2.2520 *  0.0000     8
    13  Cl    c      2.2520 *     6.7560 *     0.0000    0.0000     8
    14  Na    c      2.2520 *     0.0000       6.7560 *  0.0000     8
    15  Na    c      6.7560 *     0.0000      -2.2520 *  0.0000     8
    16  Na    c      4.5040 *     4.5040       4.5040 *  0.0000     8
    17  O     c      0.0000       4.5040 *     6.7560 *  0.0000     8
    18  Cl    c      2.2520 *     6.7560 *     4.5040 *  0.0000    16
    19  Na    c      2.2520 *     4.5040 *     6.7560 *  0.0000    16
    20  Na    c      6.7560 *     4.5040 *    -2.2520 *  0.0000    16
    21  Na    c      0.0000       0.0000       9.0080 *  0.0000     2
    22  Na    c      0.0000       9.0080 *     0.0000    0.0000     4
    23  O     c      0.0000       9.0080 *    -2.2520 *  0.0000     8
    24  O     c      4.5040 *     4.5040       6.7560 *  0.0000     8
    25  Cl    c      2.2520 *     2.2520       9.0080 *  0.0000     8
[...]
    105 z         11.260000     11.260000     0.000000    Cartesian    0.00
    106 x        -13.512000    -13.512000     0.000000    Cartesian   -0.00
    106 y          6.756000      6.756000     0.000000    Cartesian    0.00
    106 z         -2.252000     -2.252000     0.000000    Cartesian   -0.00
    107 x          9.008000      9.008000     0.000000    Cartesian    0.00
    107 y          9.008000      9.008000     0.000000    Cartesian    0.00
    107 z         13.512000     13.512000     0.000000    Cartesian    0.00
    108 x          6.756000      6.756000     0.000000    Cartesian    0.00
    108 y         11.260000     11.260000     0.000000    Cartesian    0.00
    108 z         13.512000     13.512000     0.000000    Cartesian    0.00
    109 x          6.756000      6.756000     0.000000    Cartesian    0.00
    109 y        -11.260000    -11.260000     0.000000    Cartesian   -0.00
    109 z          9.008000      9.008000     0.000000    Cartesian    0.00
    110 x         11.260000     11.260000     0.000000    Cartesian    0.00
    110 y        -11.260000    -11.260000     0.000000    Cartesian   -0.00
    110 z          4.504000      4.504000     0.000000    Cartesian    0.00
    111 x          6.756000      6.756000     0.000000    Cartesian    0.00
    111 y          6.756000      6.756000     0.000000    Cartesian    0.00
    111 z         15.764000     15.764000     0.000000    Cartesian    0.00
    112 x         11.260000     11.260000     0.000000    Cartesian    0.00
    112 y         11.260000     11.260000     0.000000    Cartesian    0.00
    112 z         11.260000     11.260000     0.000000    Cartesian    0.00
    113 x          9.008000      9.008000     0.000000    Cartesian    0.00
    113 y        -13.512000    -13.512000     0.000000    Cartesian   -0.00
    113 z          0.000000      0.000000     0.000000    Cartesian    0.00
    114 x        -13.512000    -13.512000     0.000000    Cartesian   -0.00
    114 y          2.252000      2.252000     0.000000    Cartesian    0.00
    114 z          6.756000      6.756000     0.000000    Cartesian    0.00
    115 x          9.008000      9.008000     0.000000    Cartesian    0.00
    115 y          2.252000      2.252000     0.000000    Cartesian    0.00
    115 z         15.764000     15.764000     0.000000    Cartesian    0.00
    116 x          2.252000      2.252000     0.000000    Cartesian    0.00
    116 y        -11.260000    -11.260000     0.000000    Cartesian   -0.00
    116 z         11.260000     11.260000     0.000000    Cartesian    0.00
    117 x         11.260000     11.260000     0.000000    Cartesian    0.00
    117 y        -11.260000    -11.260000     0.000000    Cartesian   -0.00
    117 z          6.756000      6.756000     0.000000    Cartesian    0.00
    118 x          9.008000      9.008000     0.000000    Cartesian    0.00
    118 y        -13.512000    -13.512000     0.000000    Cartesian   -0.00
    118 z          4.504000      4.504000     0.000000    Cartesian    0.00
    119 x          4.504000      4.504000     0.000000    Cartesian    0.00
    119 y        -11.260000    -11.260000     0.000000    Cartesian   -0.00
    119 z         11.260000     11.260000     0.000000    Cartesian    0.00
    120 x         13.512000     13.512000     0.000000    Cartesian    0.00
    120 y        -11.260000    -11.260000     0.000000    Cartesian   -0.00
    120 z         -2.252000     -2.252000     0.000000    Cartesian   -0.00
    121 x        -13.512000    -13.512000     0.000000    Cartesian   -0.00
    121 y          6.756000      6.756000     0.000000    Cartesian    0.00
    121 z          6.756000      6.756000     0.000000    Cartesian    0.00
    122 x          4.504000      4.504000     0.000000    Cartesian    0.00
    122 y         13.512000     13.512000     0.000000    Cartesian    0.00
    122 z         13.512000     13.512000     0.000000    Cartesian    0.00
    123 x          9.008000      9.008000     0.000000    Cartesian    0.00
    123 y          6.756000      6.756000     0.000000    Cartesian    0.00
    123 z         15.764000     15.764000     0.000000    Cartesian    0.00
    124 x          2.252000      2.252000     0.000000    Cartesian    0.00
    124 y          2.252000      2.252000     0.000000    Cartesian    0.00
    124 z         -2.252000     -2.252000     0.000000    Cartesian   -0.00
    125 x          4.504000      4.504000     0.000000    Cartesian    0.00
    125 y          4.504000      4.504000     0.000000    Cartesian    0.00
    125 z          0.000000      0.000000     0.000000    Cartesian    0.00
    126 x          2.252000      2.252000     0.000000    Cartesian    0.00
    126 y          6.756000      6.756000     0.000000    Cartesian    0.00
    126 z         -2.252000     -2.252000     0.000000    Cartesian   -0.00
    127 x          4.504000      4.504000     0.000000    Cartesian    0.00
    127 y          4.504000      4.504000     0.000000    Cartesian    0.00
    127 z          4.504000      4.504000     0.000000    Cartesian    0.00
    128 x          2.252000      2.252000     0.000000    Cartesian    0.00
    128 y          2.252000      2.252000     0.000000    Cartesian    0.00
    128 z          6.756000      6.756000     0.000000    Cartesian    0.00
    129 x          6.756000      6.756000     0.000000    Cartesian    0.00
    129 y          6.756000      6.756000     0.000000    Cartesian    0.00
    129 z         -2.252000     -2.252000     0.000000    Cartesian   -0.00
    130 x          4.504000      4.504000     0.000000    Cartesian    0.00
    130 y          9.008000      9.008000     0.000000    Cartesian    0.00
    130 z          0.000000      0.000000     0.000000    Cartesian    0.00
    131 x          2.252000      2.252000     0.000000    Cartesian    0.00
    131 y          6.756000      6.756000     0.000000    Cartesian    0.00
    131 z          6.756000      6.756000     0.000000    Cartesian    0.00
    132 x          4.504000      4.504000     0.000000    Cartesian    0.00
    132 y          9.008000      9.008000     0.000000    Cartesian    0.00
    132 z          4.504000      4.504000     0.000000    Cartesian    0.00
    133 x          2.252000      2.252000     0.000000    Cartesian    0.00
    133 y         11.260000     11.260000     0.000000    Cartesian    0.00
    133 z         -2.252000     -2.252000     0.000000    Cartesian   -0.00
    134 x          6.756000      6.756000     0.000000    Cartesian    0.00
    134 y          6.756000      6.756000     0.000000    Cartesian    0.00
    134 z          6.756000      6.756000     0.000000    Cartesian    0.00
    135 x          4.504000      4.504000     0.000000    Cartesian    0.00
    135 y          4.504000      4.504000     0.000000    Cartesian    0.00
    135 z          9.008000      9.008000     0.000000    Cartesian    0.00
    136 x          9.008000      9.008000     0.000000    Cartesian    0.00
    136 y          9.008000      9.008000     0.000000    Cartesian    0.00
    136 z          0.000000      0.000000     0.000000    Cartesian    0.00
    137 x          6.756000      6.756000     0.000000    Cartesian    0.00
    137 y         11.260000     11.260000     0.000000    Cartesian    0.00
    137 z         -2.252000     -2.252000     0.000000    Cartesian   -0.00
    138 x          9.008000      9.008000     0.000000    Cartesian    0.00
    138 y          9.008000      9.008000     0.000000    Cartesian    0.00
    138 z          4.504000      4.504000     0.000000    Cartesian    0.00
    139 x          2.252000      2.252000     0.000000    Cartesian    0.00
    139 y          2.252000      2.252000     0.000000    Cartesian    0.00
    139 z         11.260000     11.260000     0.000000    Cartesian    0.00
    140 x          2.252000      2.252000     0.000000    Cartesian    0.00
    140 y         11.260000     11.260000     0.000000    Cartesian    0.00
    140 z          6.756000      6.756000     0.000000    Cartesian    0.00
    141 x          4.504000      4.504000     0.000000    Cartesian    0.00
    141 y         13.512000     13.512000     0.000000    Cartesian    0.00
    141 z          0.000000      0.000000     0.000000    Cartesian    0.00
    142 x          4.504000      4.504000     0.000000    Cartesian    0.00
    142 y          9.008000      9.008000     0.000000    Cartesian    0.00
    142 z          9.008000      9.008000     0.000000    Cartesian    0.00
    143 x          2.252000      2.252000     0.000000    Cartesian    0.00
    143 y          6.756000      6.756000     0.000000    Cartesian    0.00
    143 z         11.260000     11.260000     0.000000    Cartesian    0.00
    144 x          6.756000      6.756000     0.000000    Cartesian    0.00
    144 y         11.260000     11.260000     0.000000    Cartesian    0.00
    144 z          6.756000      6.756000     0.000000    Cartesian    0.00
    145 x          4.504000      4.504000     0.000000    Cartesian    0.00
    145 y         13.512000     13.512000     0.000000    Cartesian    0.00
    145 z          4.504000      4.504000     0.000000    Cartesian    0.00
    146 x          6.756000      6.756000     0.000000    Cartesian    0.00
    146 y          6.756000      6.756000     0.000000    Cartesian    0.00
    146 z         11.260000     11.260000     0.000000    Cartesian    0.00
    147 x         11.260000     11.260000     0.000000    Cartesian    0.00
    147 y         11.260000     11.260000     0.000000    Cartesian    0.00
    147 z         -2.252000     -2.252000     0.000000    Cartesian   -0.00
    148 x          9.008000      9.008000     0.000000    Cartesian    0.00
    148 y         13.512000     13.512000     0.000000    Cartesian    0.00
    148 z          0.000000      0.000000     0.000000    Cartesian    0.00
    149 x          9.008000      9.008000     0.000000    Cartesian    0.00
    149 y          9.008000      9.008000     0.000000    Cartesian    0.00
    149 z          9.008000      9.008000     0.000000    Cartesian    0.00
    150 x          2.252000      2.252000     0.000000    Cartesian    0.00
    150 y        -11.260000    -11.260000     0.000000    Cartesian   -0.00
    150 z         -2.252000     -2.252000     0.000000    Cartesian   -0.00
    151 x          9.008000      9.008000     0.000000    Cartesian    0.00
    151 y         13.512000     13.512000     0.000000    Cartesian    0.00
    151 z          4.504000      4.504000     0.000000    Cartesian    0.00
    152 x          4.504000      4.504000     0.000000    Cartesian    0.00
    152 y          4.504000      4.504000     0.000000    Cartesian    0.00
    152 z         13.512000     13.512000     0.000000    Cartesian    0.00
    153 x          6.756000      6.756000     0.000000    Cartesian    0.00
    153 y        -11.260000    -11.260000     0.000000    Cartesian   -0.00
    153 z         -2.252000     -2.252000     0.000000    Cartesian   -0.00
    154 x          2.252000      2.252000     0.000000    Cartesian    0.00
    154 y         11.260000     11.260000     0.000000    Cartesian    0.00
    154 z         11.260000     11.260000     0.000000    Cartesian    0.00
    155 x         11.260000     11.260000     0.000000    Cartesian    0.00
    155 y         11.260000     11.260000     0.000000    Cartesian    0.00
    155 z          6.756000      6.756000     0.000000    Cartesian    0.00
    156 x          4.504000      4.504000     0.000000    Cartesian    0.00
    156 y         13.512000     13.512000     0.000000    Cartesian    0.00
    156 z          9.008000      9.008000     0.000000    Cartesian    0.00
    157 x          2.252000      2.252000     0.000000    Cartesian    0.00
    157 y        -11.260000    -11.260000     0.000000    Cartesian   -0.00
    157 z          6.756000      6.756000     0.000000    Cartesian    0.00
    158 x          6.756000      6.756000     0.000000    Cartesian    0.00
    158 y         11.260000     11.260000     0.000000    Cartesian    0.00
    158 z         11.260000     11.260000     0.000000    Cartesian    0.00
    159 x          4.504000      4.504000     0.000000    Cartesian    0.00
    159 y          9.008000      9.008000     0.000000    Cartesian    0.00
    159 z         13.512000     13.512000     0.000000    Cartesian    0.00
    160 x          6.756000      6.756000     0.000000    Cartesian    0.00
    160 y        -11.260000    -11.260000     0.000000    Cartesian   -0.00
    160 z          6.756000      6.756000     0.000000    Cartesian    0.00
    161 x          2.252000      2.252000     0.000000    Cartesian    0.00
    161 y          2.252000      2.252000     0.000000    Cartesian    0.00
    161 z         15.764000     15.764000     0.000000    Cartesian    0.00
    162 x          4.504000      4.504000     0.000000    Cartesian    0.00
    162 y        -13.512000    -13.512000     0.000000    Cartesian   -0.00
    162 z          0.000000      0.000000     0.000000    Cartesian    0.00
    163 x         13.512000     13.512000     0.000000    Cartesian    0.00
    163 y         13.512000     13.512000     0.000000    Cartesian    0.00
    163 z          0.000000      0.000000     0.000000    Cartesian    0.00
    164 x          9.008000      9.008000     0.000000    Cartesian    0.00
    164 y         13.512000     13.512000     0.000000    Cartesian    0.00
    164 z          9.008000      9.008000     0.000000    Cartesian    0.00
    165 x         11.260000     11.260000     0.000000    Cartesian    0.00
    165 y        -11.260000    -11.260000     0.000000    Cartesian   -0.00
    165 z         -2.252000     -2.252000     0.000000    Cartesian   -0.00
    166 x          2.252000      2.252000     0.000000    Cartesian    0.00
    166 y          6.756000      6.756000     0.000000    Cartesian    0.00
    166 z         15.764000     15.764000     0.000000    Cartesian    0.00
    167 x          4.504000      4.504000     0.000000    Cartesian    0.00
    167 y        -13.512000    -13.512000     0.000000    Cartesian   -0.00
    167 z          4.504000      4.504000     0.000000    Cartesian    0.00
    168 x         13.512000     13.512000     0.000000    Cartesian    0.00
    168 y         13.512000     13.512000     0.000000    Cartesian    0.00
    168 z          4.504000      4.504000     0.000000    Cartesian    0.00
    169 x          9.008000      9.008000     0.000000    Cartesian    0.00
    169 y          9.008000      9.008000     0.000000    Cartesian    0.00
    169 z         13.512000     13.512000     0.000000    Cartesian    0.00
    170 x          6.756000      6.756000     0.000000    Cartesian    0.00
    170 y          6.756000      6.756000     0.000000    Cartesian    0.00
    170 z         15.764000     15.764000     0.000000    Cartesian    0.00
    171 x         11.260000     11.260000     0.000000    Cartesian    0.00
    171 y         11.260000     11.260000     0.000000    Cartesian    0.00
    171 z         11.260000     11.260000     0.000000    Cartesian    0.00
    172 x          9.008000      9.008000     0.000000    Cartesian    0.00
    172 y        -13.512000    -13.512000     0.000000    Cartesian   -0.00
    172 z          0.000000      0.000000     0.000000    Cartesian    0.00
    173 x          2.252000      2.252000     0.000000    Cartesian    0.00
    173 y        -11.260000    -11.260000     0.000000    Cartesian   -0.00
    173 z         11.260000     11.260000     0.000000    Cartesian    0.00
    174 x         11.260000     11.260000     0.000000    Cartesian    0.00
    174 y        -11.260000    -11.260000     0.000000    Cartesian   -0.00
    174 z          6.756000      6.756000     0.000000    Cartesian    0.00
    175 x          9.008000      9.008000     0.000000    Cartesian    0.00
    175 y        -13.512000    -13.512000     0.000000    Cartesian   -0.00
    175 z          4.504000      4.504000     0.000000    Cartesian    0.00
    176 x          4.504000      4.504000     0.000000    Cartesian    0.00
    176 y         13.512000     13.512000     0.000000    Cartesian    0.00
    176 z         13.512000     13.512000     0.000000    Cartesian    0.00

  Time to end of optimisation  =        5.5322 seconds

  Timing analysis for GULP :

  Task / Subroutine                                          Time (Seconds)
  Calculation for region 1 energy and derivatives (2-b)           4.9265
  Calculation for region 2a energy                                0.3395
  Symmetry generation of equivalent positions                     0.0016

  **** GULP has completed with 1 warning - beware! ****

  Job Finished at 14:16.51 30th December   2020