  Job Started  at 13:22.27 21st October    2020

  Number of CPUs =     1

  Total number of configurations input =      1

*  Input for Configuration =   1                                               *

  Formula = ClOLi3

  Number of irreducible atoms/shells =       5

  Total number atoms/shells =       7

  Dimensionality = 3               :  Bulk

  Symmetry :

  Crystal family                   :  Cubic
  Crystal class  (Groth - 1921)    :  Cubic Hexakisoctahedral

  Space group (centrosymmetric)    :  P M 3 M

  Patterson group                  :  P m -3 m

  Cartesian lattice vectors (Angstroms) :

        3.918873    0.000000    0.000000
        0.000000    3.918873    0.000000
        0.000000    0.000000    3.918873

  Cell parameters (Angstroms/Degrees):

  a =       3.9189    alpha =  90.0000
  b =       3.9189    beta  =  90.0000
  c =       3.9189    gamma =  90.0000

  Initial cell volume =          60.184349 Angs**3

  Temperature of configuration =   0.00     K

  Pressure of configuration =         0.000 GPa

  Fractional coordinates of asymmetric unit :

   No.  Atomic       x           y          z         Charge      Occupancy
        Label      (Frac)      (Frac)     (Frac)        (e)         (Frac)
      1 Cl    c    0.000000    0.000000    0.000000     1.48500    1.000000
      2 O     c    0.500000    0.500000    0.500000     0.18300    1.000000
      3 Li    c    0.500000    0.500000    0.000000     1.00000    1.000000
      4 Cl    s    0.000000    0.000000    0.000000    -2.48500    1.000000
      5 O     s    0.500000    0.500000    0.500000    -2.18300    1.000000

  Constraints :

  Constraint no.      Unconstrained     Constrained    Coefficient    Offset
                         Variable         Variable
           1              Strain 1        Strain 2       1.00000      0.0000
           2              Strain 1        Strain 3       1.00000      0.0000

*  General input information                                                   *

  Species output for all configurations :

  Species    Type    Atomic    Atomic    Charge       Radii (Angs)     Library
                     Number     Mass       (e)     Cova   Ionic  VDW   Symbol
    Li       Core        3       6.94   1.000000   0.680  0.000  1.800
    O        Core        8      16.00   0.183000   0.730  0.000  1.360
    O        Shell       8       0.00  -2.183000   0.730  0.000  1.360
    Cl       Core       17      35.45   1.485000   0.990  0.000  1.650
    Cl       Shell      17       0.00  -2.485000   0.990  0.000  1.650

  Lattice summation method               =    Ewald          (3-D)
                                         =    Parry          (2-D)
                                         =    Saunders et al (1-D)
  Accuracy factor for lattice sums       =   12.000

  Analytic derivatives to be used

  Time limit = Infinity

  Maximum range for interatomic potentials =    100000.000000 Angstroms

  General interatomic potentials :

Atom  Types   Potential      Parameter       Value         Units   Cutoffs(Ang)
  1     2                                                            Min /  Max
O    c O    s Spring (c-s)  Spring k 2       593.72000    eV*Ang^-2 0.000  0.800
                            Spring k 4       0.0000000    eV*Ang^-4
Cl   c Cl   s Spring (c-s)  Spring k 2       29.380000    eV*Ang^-2 0.000  0.800
                            Spring k 4       0.0000000    eV*Ang^-4
Li   c Li   c Buckingham    Buckingham A     360.53000    eV        0.000 12.000
                            Buckingham rho  0.16100000    Ang
                            Buckingham C     0.0000000    eV*Ang^6
Li   c O    s Buckingham    Buckingham A     292.30000    eV        0.000 12.000
                            Buckingham rho  0.34720000    Ang
                            Buckingham C     0.0000000    eV*Ang^6
Li   c Cl   s Buckingham    Buckingham A     421.04000    eV        0.000 12.000
                            Buckingham rho  0.33400000    Ang
                            Buckingham C     0.0000000    eV*Ang^6
O    s O    s Buckingham    Buckingham A     22764.300    eV        0.000 12.000
                            Buckingham rho  0.14900000    Ang
                            Buckingham C     13.190000    eV*Ang^6
O    s Cl   s Buckingham    Buckingham A     8286.9100    eV        0.000 12.000
                            Buckingham rho  0.25900000    Ang
                            Buckingham C     62.200000    eV*Ang^6
Cl   s Cl   s Buckingham    Buckingham A     1227.2000    eV        0.000 12.000
                            Buckingham rho  0.32100000    Ang
                            Buckingham C     14.530000    eV*Ang^6

*  Output for configuration   1                                                *

  Components of energy :

  Interatomic potentials     =           7.26836263 eV
  Monopole - monopole (real) =         -11.53475722 eV
  Monopole - monopole (recip)=         -33.94580548 eV
  Monopole - monopole (total)=         -45.48056271 eV
  Total lattice energy       =         -38.21220008 eV
  Total lattice energy       =           -3686.8932 kJ/(mole unit cells)

  Number of variables =        1

  Maximum number of calculations  =          1000
  Maximum Hessian update interval =            10
  Maximum step size               =   1.000000000
  Maximum parameter tolerance     =   0.000010000
  Maximum function  tolerance     =   0.000010000
  Maximum gradient  tolerance     =   0.001000000
  Maximum gradient  component     =   0.010000000

  Symmetry constrained optimisation

  Symmetry used for second derivatives

  Cell parameters to be optimised using strains

  Newton-Raphson optimiser to be used

  BFGS hessian update to be used

  Lower half triangular hessian to be used

  Start of bulk optimisation :

  ** Hessian calculated **

  **** Optimisation achieved ****

  Final energy =     -38.21222207 eV
  Final Gnorm  =       0.00000016

  Components of energy :

  Interatomic potentials     =           7.24743141 eV
  Monopole - monopole (real) =         -11.52945423 eV
  Monopole - monopole (recip)=         -33.93019924 eV
  Monopole - monopole (total)=         -45.45965348 eV
  Total lattice energy       =         -38.21222207 eV
  Total lattice energy       =           -3686.8953 kJ/(mole unit cells)

  Final asymmetric unit coordinates :

   No.  Atomic        x           y           z         Radius
        Label       (Frac)      (Frac)      (Frac)       (Angs)
     1  Cl    c     0.000000    0.000000    0.000000    0.000000
     2  O     c     0.500000    0.500000    0.500000    0.000000
     3  Li    c     0.500000    0.500000    0.000000    0.000000
     4  Cl    s     0.000000    0.000000    0.000000    0.000000
     5  O     s     0.500000    0.500000    0.500000    0.000000

  Final Cartesian lattice vectors (Angstroms) :

        3.920675    0.000000    0.000000
        0.000000    3.920675    0.000000
        0.000000    0.000000    3.920675

  Final cell parameters and derivatives :

       a            3.920675 Angstrom     dE/de1(xx)    -0.000000 eV/strain
       b            3.920675 Angstrom     dE/de2(yy)     0.000000 eV/strain
       c            3.920675 Angstrom     dE/de3(zz)     0.000000 eV/strain
       alpha       90.000000 Degrees      dE/de4(yz)     0.000000 eV/strain
       beta        90.000000 Degrees      dE/de5(xz)     0.000000 eV/strain
       gamma       90.000000 Degrees      dE/de6(xy)     0.000000 eV/strain

  Primitive cell volume =            60.267433 Angs**3

  Density of cell =      1.991276 g/cm**3

  Non-primitive cell volume =            60.267433 Angs**3

  Final internal derivatives :

   No.  Atomic          a             b             c           Radius
        Label          (eV)          (eV)          (eV)        (eV/Angs)
      1 Cl    c       0.000000      0.000000      0.000000      0.000000
      2 O     c       0.000000      0.000000      0.000000      0.000000
      3 Li    c       0.000000      0.000000      0.000000      0.000000
      4 Cl    s       0.000000      0.000000      0.000000      0.000000
      5 O     s       0.000000      0.000000      0.000000      0.000000
  Maximum abs         0.000000      0.000000      0.000000      0.000000

  Comparison of initial and final structures :

  Parameter   Initial value   Final value   Difference    Units      Percent
    Volume        60.184349     60.267433     0.083084    Angs**3      0.14
    a              3.918873      3.920675     0.001802    Angstroms    0.05
    b              3.918873      3.920675     0.001802    Angstroms    0.05
    c              3.918873      3.920675     0.001802    Angstroms    0.05
    alpha         90.000000     90.000000     0.000000    Degrees      0.00
    beta          90.000000     90.000000     0.000000    Degrees      0.00
    gamma         90.000000     90.000000     0.000000    Degrees      0.00
      1 x          0.000000      0.000000     0.000000    Fractional   0.00
      1 y          0.000000      0.000000     0.000000    Fractional   0.00
      1 z          0.000000      0.000000     0.000000    Fractional   0.00
      2 x          0.500000      0.500000     0.000000    Fractional   0.00
      2 y          0.500000      0.500000     0.000000    Fractional   0.00
      2 z          0.500000      0.500000     0.000000    Fractional   0.00
      3 x          0.500000      0.500000     0.000000    Fractional   0.00
      3 y          0.500000      0.500000     0.000000    Fractional   0.00
      3 z          0.000000      0.000000     0.000000    Fractional   0.00
      4 x          0.000000      0.000000     0.000000    Fractional   0.00
      4 y          0.000000      0.000000     0.000000    Fractional   0.00
      4 z          0.000000      0.000000     0.000000    Fractional   0.00
      5 x          0.500000      0.500000     0.000000    Fractional   0.00
      5 y          0.500000      0.500000     0.000000    Fractional   0.00
      5 z          0.500000      0.500000     0.000000    Fractional   0.00

  Born effective charge tensors :

  Atom             x           y             z
    1 Cl    x      -0.9489     -0.0000     -0.0000
            y      -0.0000     -0.9489     -0.0000
            z      -0.0000     -0.0000     -0.9489
    2 O     x      -2.4688      0.0000      0.0000
            y       0.0000     -2.4688      0.0000
            z       0.0000      0.0000     -2.4688
    3 Li    x       1.3129      0.0000     -0.0000
            y       0.0000      1.3129      0.0000
            z      -0.0000      0.0000      0.7919

  Elastic Constant Matrix: (Units=GPa)

  Indices      1         2         3         4         5         6
       1     94.3368   44.9178   44.9178    0.0000   -0.0000    0.0000
       2     44.9178   94.3368   44.9178   -0.0000    0.0000   -0.0000
       3     44.9178   44.9178   94.3368    0.0000   -0.0000    0.0000
       4      0.0000   -0.0000    0.0000   44.9178   -0.0000    0.0000
       5     -0.0000    0.0000   -0.0000   -0.0000   44.9178    0.0000
       6      0.0000   -0.0000    0.0000    0.0000    0.0000   44.9178

  Elastic Compliance Matrix: (Units=1/GPa)

[...]
    552 z          0.000000      0.000000     0.000000    Cartesian    0.00
    553 x          1.960338      1.959706    -0.000632    Cartesian   -0.03
    553 y          9.801689      9.801938     0.000250    Cartesian    0.00
    553 z         13.722364     13.722842     0.000478    Cartesian    0.00
    554 x        -11.762026    -11.759994     0.002032    Cartesian   -0.02
    554 y          3.920675      3.919913    -0.000763    Cartesian   -0.02
    554 z          7.841351      7.838751    -0.002600    Cartesian   -0.03
    555 x          7.841351      7.838511    -0.002840    Cartesian   -0.04
    555 y          3.920675      3.919041    -0.001635    Cartesian   -0.04
    555 z         15.682702     15.678917    -0.003785    Cartesian   -0.02
    556 x         -9.801689     -9.803186    -0.001497    Cartesian    0.02
    556 y          5.881013      5.881162     0.000148    Cartesian    0.00
    556 z          9.801689      9.801743     0.000055    Cartesian    0.00
    557 x         -3.920675     -3.920696    -0.000020    Cartesian    0.00
    557 y          0.000000      0.000000     0.000000    Cartesian    0.00
    557 z         15.682702     15.679988    -0.002714    Cartesian   -0.02
    558 x         15.682702     15.676538    -0.006164    Cartesian   -0.04
    558 y          7.841351      7.837891    -0.003460    Cartesian   -0.04
    558 z          7.841351      7.837891    -0.003460    Cartesian   -0.04
    559 x         17.643040     17.639108    -0.003931    Cartesian   -0.02
    559 y          5.881013      5.879913    -0.001100    Cartesian   -0.02
    559 z          5.881013      5.879913    -0.001100    Cartesian   -0.02
    560 x          5.881013      5.881204     0.000191    Cartesian    0.00
    560 y          9.801689      9.801320    -0.000369    Cartesian   -0.00
    560 z         13.722364     13.722100    -0.000265    Cartesian   -0.00
    561 x         -5.881013     -5.883089    -0.002076    Cartesian    0.04
    561 y          5.881013      5.881839     0.000826    Cartesian    0.01
    561 z         13.722364     13.723716     0.001352    Cartesian    0.01
    562 x         19.603377     19.596520    -0.006857    Cartesian   -0.03
    562 y          0.000000      0.000000     0.000000    Cartesian    0.00
    562 z          3.920675      3.918409    -0.002266    Cartesian   -0.06
    563 x          7.841351      7.840262    -0.001089    Cartesian   -0.01
    563 y         11.762026     11.759444    -0.002583    Cartesian   -0.02
    563 z         11.762026     11.759444    -0.002583    Cartesian   -0.02
    564 x         -3.920675     -3.921722    -0.001047    Cartesian    0.03
    564 y          3.920675      3.920769     0.000093    Cartesian    0.00
    564 z         15.682702     15.680674    -0.002028    Cartesian   -0.01
    565 x         15.682702     15.677834    -0.004868    Cartesian   -0.03
    565 y          0.000000      0.000000     0.000000    Cartesian    0.00
    565 z         11.762026     11.758261    -0.003766    Cartesian   -0.03
    566 x         -1.960338     -1.962014    -0.001676    Cartesian    0.09
    566 y          9.801689      9.802525     0.000837    Cartesian    0.01
    566 z         13.722364     13.723465     0.001101    Cartesian    0.01
    567 x          3.920675      3.919742    -0.000934    Cartesian   -0.02
    567 y          7.841351      7.840591    -0.000760    Cartesian   -0.01
    567 z         15.682702     15.680609    -0.002093    Cartesian   -0.01
    568 x        -13.722364    -13.723310    -0.000945    Cartesian    0.01
    568 y         -1.960338     -1.960289     0.000048    Cartesian   -0.00
    568 z          5.881013      5.881669     0.000656    Cartesian    0.01
    569 x         -7.841351     -7.842347    -0.000996    Cartesian    0.01
    569 y          7.841351      7.839523    -0.001828    Cartesian   -0.02
    569 z         11.762026     11.760031    -0.001996    Cartesian   -0.02
    570 x         13.722364     13.720930    -0.001434    Cartesian   -0.01
    570 y         13.722364     13.720831    -0.001533    Cartesian   -0.01
    570 z         -1.960338     -1.959838     0.000500    Cartesian   -0.03
    571 x         13.722364     13.720185    -0.002179    Cartesian   -0.02
    571 y          9.801689      9.799874    -0.001815    Cartesian   -0.02
    571 z          9.801689      9.799874    -0.001815    Cartesian   -0.02
    572 x          0.000000     -0.000765    -0.000765    Cartesian    0.00
    572 y          7.841351      7.840997    -0.000354    Cartesian   -0.00
    572 z         15.682702     15.681078    -0.001624    Cartesian   -0.01
    573 x         19.603377     19.597403    -0.005974    Cartesian   -0.03
    573 y          3.920675      3.919926    -0.000749    Cartesian   -0.02
    573 z          3.920675      3.919926    -0.000749    Cartesian   -0.02
    574 x          1.960338      1.959863    -0.000475    Cartesian   -0.02
    574 y         17.643040     17.643613     0.000573    Cartesian    0.00
    574 z         -1.960338     -1.961256    -0.000918    Cartesian    0.05
    575 x         -3.920675     -3.922522    -0.001847    Cartesian    0.05
    575 y         11.762026     11.761063    -0.000964    Cartesian   -0.01
    575 z         11.762026     11.761063    -0.000964    Cartesian   -0.01
    576 x         15.682702     15.678195    -0.004507    Cartesian   -0.03
    576 y          3.920675      3.918766    -0.001910    Cartesian   -0.05
    576 z         11.762026     11.758348    -0.003678    Cartesian   -0.03
    577 x         17.643040     17.640648    -0.002392    Cartesian   -0.01
    577 y         -1.960338     -1.959930     0.000407    Cartesian   -0.02
    577 z          9.801689      9.800675    -0.001014    Cartesian   -0.01
    578 x          5.881013      5.880906    -0.000107    Cartesian   -0.00
    578 y         -1.960338     -1.960535    -0.000197    Cartesian    0.01
    578 z         17.643040     17.643421     0.000381    Cartesian    0.00
    579 x         11.762026     11.759932    -0.002095    Cartesian   -0.02
    579 y          0.000000      0.000000     0.000000    Cartesian    0.00
    579 z         15.682702     15.679208    -0.003494    Cartesian   -0.02
    580 x        -11.762026    -11.760580     0.001447    Cartesian   -0.01
    580 y          7.841351      7.839630    -0.001721    Cartesian   -0.02
    580 z          7.841351      7.839630    -0.001721    Cartesian   -0.02
    581 x          7.841351      7.839720    -0.001631    Cartesian   -0.02
    581 y          7.841351      7.840345    -0.001006    Cartesian   -0.01
    581 z         15.682702     15.679765    -0.002937    Cartesian   -0.02
    582 x          9.801689      9.801328    -0.000360    Cartesian   -0.00
    582 y          9.801689      9.801558    -0.000130    Cartesian   -0.00
    582 z         13.722364     13.721905    -0.000459    Cartesian   -0.00
    583 x         -1.960338     -1.961077    -0.000739    Cartesian    0.04
    583 y         17.643040     17.642950    -0.000089    Cartesian   -0.00
    583 z         -1.960338     -1.960730    -0.000392    Cartesian    0.02
    584 x        -15.682702    -15.679402     0.003300    Cartesian   -0.02
    584 y          0.000000      0.000000     0.000000    Cartesian    0.00
    584 z          0.000000      0.000000     0.000000    Cartesian    0.00
    585 x        -13.722364    -13.722775    -0.000411    Cartesian    0.00
    585 y          5.881013      5.880971    -0.000042    Cartesian   -0.00
    585 z          5.881013      5.880971    -0.000042    Cartesian   -0.00
    586 x         11.762026     11.760163    -0.001863    Cartesian   -0.02
    586 y          3.920675      3.919524    -0.001152    Cartesian   -0.03
    586 z         15.682702     15.678909    -0.003792    Cartesian   -0.02
    587 x         13.722364     13.721267    -0.001097    Cartesian   -0.01
    587 y          5.881013      5.879971    -0.001042    Cartesian   -0.02
    587 z         13.722364     13.720820    -0.001544    Cartesian   -0.01
    588 x         19.603377     19.597923    -0.005455    Cartesian   -0.03
    588 y          0.000000      0.000000     0.000000    Cartesian    0.00
    588 z          7.841351      7.840024    -0.001327    Cartesian   -0.02
    589 x          1.960338      1.960059    -0.000279    Cartesian   -0.01
    589 y          5.881013      5.881373     0.000360    Cartesian    0.01
    589 z         17.643040     17.642850    -0.000190    Cartesian   -0.00
    590 x        -11.762026    -11.760259     0.001767    Cartesian   -0.02
    590 y          0.000000      0.000000     0.000000    Cartesian    0.00
    590 z         11.762026     11.759306    -0.002720    Cartesian   -0.02
    591 x         -9.801689     -9.801875    -0.000186    Cartesian    0.00
    591 y         -1.960338     -1.960221     0.000117    Cartesian   -0.01
    591 z         13.722364     13.721495    -0.000869    Cartesian   -0.01
    592 x         -9.801689     -9.802769    -0.001081    Cartesian    0.01
    592 y          9.801689      9.801437    -0.000252    Cartesian   -0.00
    592 z          9.801689      9.801437    -0.000252    Cartesian   -0.00
    593 x         -3.920675     -3.921413    -0.000737    Cartesian    0.02
    593 y          7.841351      7.840866    -0.000485    Cartesian   -0.01
    593 z         15.682702     15.680579    -0.002123    Cartesian   -0.01
    594 x         17.643040     17.640947    -0.002093    Cartesian   -0.01
    594 y          5.881013      5.880214    -0.000800    Cartesian   -0.01
    594 z          9.801689      9.800463    -0.001226    Cartesian   -0.01
    595 x        -15.682702    -15.678760     0.003942    Cartesian   -0.03
    595 y          0.000000      0.000000     0.000000    Cartesian    0.00
    595 z          3.920675      3.919669    -0.001006    Cartesian   -0.03
    596 x          5.881013      5.880688    -0.000325    Cartesian   -0.01
    596 y          5.881013      5.880857    -0.000156    Cartesian   -0.00
    596 z         17.643040     17.642399    -0.000641    Cartesian   -0.00
    597 x         -7.841351     -7.841447    -0.000096    Cartesian    0.00
    597 y          0.000000      0.000000     0.000000    Cartesian    0.00
    597 z         15.682702     15.679205    -0.003497    Cartesian   -0.02
    598 x         11.762026     11.759911    -0.002115    Cartesian   -0.02
    598 y         11.762026     11.758862    -0.003164    Cartesian   -0.03
    598 z         11.762026     11.758862    -0.003164    Cartesian   -0.03
    599 x         -5.881013     -5.881963    -0.000949    Cartesian    0.02
    599 y          9.801689      9.801465    -0.000223    Cartesian   -0.00
    599 z         13.722364     13.722217    -0.000147    Cartesian   -0.00
    600 x         19.603377     19.597754    -0.005623    Cartesian   -0.03
    600 y          3.920675      3.919710    -0.000966    Cartesian   -0.02
    600 z          7.841351      7.839116    -0.002235    Cartesian   -0.03
    601 x         21.563715     21.561198    -0.002517    Cartesian   -0.01
    601 y         -1.960338     -1.960055     0.000283    Cartesian   -0.01
    601 z         -1.960338     -1.960055     0.000283    Cartesian   -0.01
    602 x        -11.762026    -11.759955     0.002071    Cartesian   -0.02
    602 y          3.920675      3.919483    -0.001193    Cartesian   -0.03
    602 z         11.762026     11.758877    -0.003150    Cartesian   -0.03
    603 x          9.801689      9.801251    -0.000438    Cartesian   -0.00
    603 y         -1.960338     -1.960110     0.000228    Cartesian   -0.01
    603 z         17.643040     17.641903    -0.001137    Cartesian   -0.01
    604 x         15.682702     15.678293    -0.004408    Cartesian   -0.03
    604 y          7.841351      7.839031    -0.002320    Cartesian   -0.03
    604 z         11.762026     11.758272    -0.003755    Cartesian   -0.03
    605 x         -1.960338     -1.960856    -0.000518    Cartesian    0.03
    605 y         17.643040     17.643216     0.000176    Cartesian    0.00
    605 z          5.881013      5.881362     0.000349    Cartesian    0.01
    606 x        -15.682702    -15.677987     0.004715    Cartesian   -0.03
    606 y          3.920675      3.919641    -0.001034    Cartesian   -0.03
    606 z          3.920675      3.919641    -0.001034    Cartesian   -0.03
    607 x        -13.722364    -13.721422     0.000942    Cartesian   -0.01
    607 y          9.801689      9.800610    -0.001079    Cartesian   -0.01
    607 z         -1.960338     -1.960245     0.000093    Cartesian   -0.00
    608 x         -7.841351     -7.840385     0.000966    Cartesian   -0.01
    608 y          3.920675      3.919665    -0.001011    Cartesian   -0.03
    608 z         15.682702     15.679127    -0.003575    Cartesian   -0.02
    609 x          1.960338      1.960283    -0.000054    Cartesian   -0.00
    609 y         13.722364     13.721573    -0.000792    Cartesian   -0.01
    609 z         13.722364     13.721573    -0.000792    Cartesian   -0.01
    610 x         -9.801689     -9.800769     0.000919    Cartesian   -0.01
    610 y          5.881013      5.879881    -0.001133    Cartesian   -0.02
    610 z         13.722364     13.720871    -0.001493    Cartesian   -0.01
    611 x          3.920675      3.919850    -0.000825    Cartesian   -0.02
    611 y         11.762026     11.759231    -0.002795    Cartesian   -0.02
    611 z         15.682702     15.678660    -0.004042    Cartesian   -0.03
    612 x          3.920675      3.919683    -0.000992    Cartesian   -0.03
    612 y          0.000000      0.000000     0.000000    Cartesian    0.00
    612 z         19.603377     19.598371    -0.005007    Cartesian   -0.03
    613 x          5.881013      5.880236    -0.000777    Cartesian   -0.01
    613 y         13.722364     13.720554    -0.001810    Cartesian   -0.01
    613 z         13.722364     13.720554    -0.001810    Cartesian   -0.01
    614 x         -7.841351     -7.840835     0.000516    Cartesian   -0.01
    614 y         11.762026     11.759581    -0.002445    Cartesian   -0.02
    614 z         11.762026     11.759581    -0.002445    Cartesian   -0.02
    615 x         11.762026     11.759401    -0.002625    Cartesian   -0.02
    615 y          7.841351      7.838967    -0.002384    Cartesian   -0.03
    615 z         15.682702     15.677768    -0.004934    Cartesian   -0.03
    616 x         -5.881013     -5.880416     0.000597    Cartesian   -0.01
    616 y         -1.960338     -1.959717     0.000621    Cartesian   -0.03
    616 z         17.643040     17.641097    -0.001943    Cartesian   -0.01
    617 x          0.000000      0.000353     0.000353    Cartesian    0.00
    617 y         11.762026     11.759382    -0.002644    Cartesian   -0.02
    617 z         15.682702     15.678846    -0.003856    Cartesian   -0.02
    618 x          0.000000      0.000075     0.000075    Cartesian    0.00
    618 y          0.000000      0.000000     0.000000    Cartesian    0.00
    618 z         19.603377     19.597381    -0.005997    Cartesian   -0.03
    619 x         21.563715     21.560388    -0.003327    Cartesian   -0.02
    619 y          5.881013      5.879855    -0.001158    Cartesian   -0.02
    619 z         -1.960338     -1.959737     0.000600    Cartesian   -0.03
    620 x          9.801689      9.800510    -0.001179    Cartesian   -0.01
    620 y          5.881013      5.879877    -0.001136    Cartesian   -0.02
    620 z         17.643040     17.640409    -0.002630    Cartesian   -0.01
    621 x         -1.960338     -1.959556     0.000782    Cartesian   -0.04
    621 y         13.722364     13.720808    -0.001556    Cartesian   -0.01
    621 z         13.722364     13.720808    -0.001556    Cartesian   -0.01

  Time to end of optimisation  =       90.2242 seconds

  Timing analysis for GULP :

  Task / Subroutine                                          Time (Seconds)
  Calculation of reciprocal space energy and derivatives          0.0004
  Calculation of reciprocal space energy using symmetry           0.0003
  Calculation of real space energy and derivatives                0.0020
  Calculation of real space energy using symmetry                 0.0038
  Calculation for region 1 energy and derivatives (2-b)          48.9712
  Calculation for region 2a energy                               12.8963
  Calculation for region 2b energy                                0.0024
  Calculation and manipulation of Hessian matrix                 25.4617
  Calculation of matrix inversion                                 2.0309
  Symmetry generation of equivalent positions                     0.0017

  Dump file written as Li3OCl.grs

  Job Finished at 13:23.58 21st October    2020